 Generator version 2019.03.05. K-point grid has 225 total points and 30 distinct points. Actual minimum periodic distance is 21.529050141610984 Angstroms. Grid includes gamma point. 
30
Fractional
0.00000000000000 0.00000000000000 0.00000000000000 1.0 ! 1
0.26666666666667 0.00000000000000 0.20000000000000 8.0 ! 2
0.53333333333333 0.00000000000000 0.40000000000000 8.0 ! 3
0.80000000000000 0.00000000000000 0.60000000000000 4.0 ! 4
0.33333333333333 0.00000000000000 1.00000000000000 2.0 ! 5
0.60000000000000 0.00000000000000 0.20000000000000 4.0 ! 6
0.53333333333333 0.20000000000000 0.20000000000000 8.0 ! 7
0.80000000000000 0.20000000000000 0.40000000000000 8.0 ! 8
0.06666666666667 0.20000000000000 0.60000000000000 16.0 ! 9
0.20000000000000 0.20000000000000 0.20000000000000 4.0 ! 10
0.06666666666667 0.40000000000000 0.40000000000000 8.0 ! 11
0.40000000000000 0.40000000000000 0.40000000000000 4.0 ! 12
0.88888888888889 0.00000000000000 0.00000000000000 2.0 ! 13
0.15555555555556 0.00000000000000 0.20000000000000 8.0 ! 14
0.42222222222222 0.00000000000000 0.40000000000000 8.0 ! 15
0.68888888888889 0.00000000000000 0.60000000000000 8.0 ! 16
0.22222222222222 0.00000000000000 1.00000000000000 2.0 ! 17
0.48888888888889 0.00000000000000 0.20000000000000 8.0 ! 18
0.75555555555556 0.00000000000000 0.40000000000000 8.0 ! 19
0.55555555555556 0.00000000000000 1.00000000000000 2.0 ! 20
0.82222222222222 0.00000000000000 0.20000000000000 8.0 ! 21
0.42222222222222 0.20000000000000 0.20000000000000 8.0 ! 22
0.68888888888889 0.20000000000000 0.40000000000000 16.0 ! 23
0.95555555555556 0.20000000000000 0.60000000000000 16.0 ! 24
0.75555555555556 0.20000000000000 0.20000000000000 8.0 ! 25
0.02222222222222 0.20000000000000 0.40000000000000 16.0 ! 26
0.08888888888889 0.20000000000000 0.20000000000000 8.0 ! 27
0.95555555555556 0.40000000000000 0.40000000000000 8.0 ! 28
0.22222222222222 0.40000000000000 0.60000000000000 8.0 ! 29
0.28888888888889 0.40000000000000 0.40000000000000 8.0 ! 30
Tetrahedra
114    7.407407407407407E-4
8    1   13   14   14   
16    1   10   14   14   
4    11   11   29   29   
8    11   11   29   30   
4    11   11   30   30   
8    11   23   23   28   
16    11   23   28   30   
8    11   26   26   29   
16    11   26   29   29   
8    11   28   30   30   
8    11   29   29   29   
8    12   12   28   28   
8    12   24   24   30   
16    12   24   28   30   
8    12   28   28   30   
8    13   14   14   27   
16    14   16   24   27   
8    15   15   26   26   
16    15   21   22   26   
16    16   19   23   24   
8    17   21   21   22   
8    18   18   20   25   
16    18   19   23   25   
16    2   13   14   27   
16    2   14   16   27   
16    2   15   21   22   
16    2   17   21   22   
8    2   2   13   17   
8    2   2   13   27   
8    2   2   17   22   
8    2   2   22   27   
16    2   9   15   16   
16    2   9   15   22   
16    2   9   16   27   
16    2   9   22   27   
8    22   26   26   29   
8    23   23   25   28   
16    23   24   28   30   
8    24   24   27   30   
8    26   26   29   29   
4    28   28   30   30   
2    29   29   29   29   
16    3   15   15   26   
16    3   15   21   26   
16    3   16   19   23   
16    3   18   19   23   
16    3   7   18   21   
16    3   7   18   23   
16    3   7   21   26   
16    3   7   23   26   
16    3   9   15   16   
16    3   9   15   26   
16    3   9   16   23   
16    3   9   23   26   
16    4   14   16   24   
16    4   16   19   24   
8    4   8   19   19   
16    4   8   19   24   
8    4   8   24   24   
8    4   10   14   14   
16    4   10   14   24   
8    4   10   24   24   
8    5   17   21   21   
8    5   18   18   20   
8    5   7   18   18   
16    5   7   18   21   
8    5   7   21   21   
16    6   18   19   25   
16    6   18   20   25   
4    6   6   20   20   
8    6   6   20   25   
4    6   6   25   25   
8    6   8   19   19   
16    6   8   19   25   
8    6   8   25   25   
8    7   11   23   23   
16    7   11   23   26   
8    7   11   26   26   
8    7   18   18   25   
16    7   18   23   25   
8    7   21   21   22   
16    7   21   22   26   
8    7   22   26   26   
8    7   23   23   25   
8    8   12   24   24   
16    8   12   24   28   
8    8   12   28   28   
16    8   19   23   24   
16    8   19   23   25   
16    8   23   24   28   
16    8   23   25   28   
4    8   8   25   25   
8    8   8   25   28   
4    8   8   28   28   
16    9   11   23   26   
16    9   11   23   30   
16    9   11   26   29   
16    9   11   29   30   
16    9   15   22   26   
16    9   15   26   26   
16    9   16   23   24   
16    9   16   24   27   
16    9   22   26   29   
16    9   23   24   30   
16    9   24   27   30   
16    9   26   26   29   
8    9   9   22   27   
8    9   9   22   29   
8    9   9   27   30   
8    9   9   29   30   
16    10   12   24   24   
8    10   14   14   27   
16    10   14   24   27   
8    10   24   24   27   
