Server version 2018.02.28. K-point grid has 32 total points and 10 distinct points. Actual minimum periodic distance is 7.5 Angstroms. Grid includes gamma point. 
10
Fractional
0.00000000000000 0.00000000000000 0.00000000000000 1.0 ! 1
0.81250000000000 0.25000000000000 0.50000000000000 8.0 ! 2
0.62500000000000 0.50000000000000 0.00000000000000 4.0 ! 3
0.43750000000000 0.75000000000000 0.50000000000000 8.0 ! 4
0.25000000000000 0.00000000000000 0.00000000000000 2.0 ! 5
0.50000000000000 0.00000000000000 0.00000000000000 1.0 ! 6
0.87500000000000 0.00000000000000 0.00000000000000 2.0 ! 7
0.50000000000000 0.50000000000000 0.00000000000000 2.0 ! 8
0.75000000000000 0.50000000000000 0.00000000000000 2.0 ! 9
0.37500000000000 0.00000000000000 0.00000000000000 2.0 ! 10
Tetrahedra
25    0.005208333333333333
8    1   2   2   6   
8    1   2   2   7   
8    1   2   2   9   
4    2   2   3   3   
4    2   2   3   7   
16    2   2   3   9   
4    2   2   3   10   
8    2   2   6   9   
8    2   2   6   10   
4    2   2   7   10   
8    2   2   9   9   
8    2   3   3   4   
8    2   3   4   7   
8    2   3   4   10   
8    2   4   7   10   
4    3   3   4   4   
4    3   4   4   7   
16    3   4   4   8   
4    3   4   4   10   
8    4   4   5   5   
8    4   4   5   7   
16    4   4   5   8   
8    4   4   5   10   
4    4   4   7   10   
8    4   4   8   8   
