Server version 2018.02.28. K-point grid has 343 total points and 20 distinct points. Actual minimum periodic distance is 28.499047700372408 Angstroms. Grid includes gamma point. 
20
Fractional
0.00000000000000 0.00000000000000 0.00000000000000 1.0 ! 1
0.00000000000000 0.14285714285714 0.00000000000000 8.0 ! 2
0.00000000000000 0.28571428571429 0.00000000000000 8.0 ! 3
0.00000000000000 0.42857142857143 0.00000000000000 8.0 ! 4
0.00000000000000 0.14285714285714 0.14285714285714 6.0 ! 5
0.00000000000000 0.28571428571429 0.14285714285714 24.0 ! 6
0.00000000000000 0.42857142857143 0.14285714285714 24.0 ! 7
0.00000000000000 0.57142857142857 0.14285714285714 24.0 ! 8
0.00000000000000 0.71428571428571 0.14285714285714 24.0 ! 9
0.00000000000000 0.85714285714286 0.14285714285714 12.0 ! 10
0.00000000000000 0.28571428571429 0.28571428571429 6.0 ! 11
0.00000000000000 0.42857142857143 0.28571428571429 24.0 ! 12
0.00000000000000 0.57142857142857 0.28571428571429 24.0 ! 13
0.00000000000000 0.71428571428571 0.28571428571429 12.0 ! 14
0.00000000000000 0.42857142857143 0.42857142857143 6.0 ! 15
0.00000000000000 0.57142857142857 0.42857142857143 12.0 ! 16
0.14285714285714 0.42857142857143 0.28571428571429 24.0 ! 17
0.14285714285714 0.57142857142857 0.28571428571429 48.0 ! 18
0.14285714285714 0.57142857142857 0.42857142857143 24.0 ! 19
0.14285714285714 0.71428571428571 0.42857142857143 24.0 ! 20
Tetrahedra
58    4.8590864917395527E-4
24    1   2   2   5   
24    11   12   12   15   
24    11   12   12   17   
24    12   12   15   19   
24    12   12   17   19   
48    12   13   16   19   
48    12   13   18   19   
48    12   15   16   19   
48    12   17   18   19   
24    13   13   14   20   
24    13   13   16   20   
48    13   14   18   20   
48    13   16   19   20   
48    13   18   18   20   
48    13   18   19   20   
24    14   17   18   18   
24    14   18   18   20   
12    15   15   16   16   
24    15   16   16   19   
12    16   16   19   19   
24    16   19   19   20   
24    17   18   18   19   
24    18   18   19   20   
24    18   18   20   20   
48    18   19   20   20   
12    19   19   20   20   
24    19   20   20   20   
6    20   20   20   20   
24    2   2   5   10   
48    2   3   6   10   
48    2   5   6   10   
48    3   4   7   9   
48    3   6   7   9   
48    3   6   9   10   
24    4   4   8   8   
48    4   7   8   8   
48    4   7   8   9   
24    5   6   6   11   
24    5   6   6   10   
48    6   11   12   17   
24    6   6   11   17   
24    6   6   10   17   
48    6   7   12   17   
48    6   7   9   17   
48    6   9   10   17   
48    7   12   13   18   
48    7   12   17   18   
48    7   8   13   18   
48    7   8   8   18   
48    7   8   9   18   
48    7   9   17   18   
48    8   13   14   18   
48    8   13   18   18   
24    8   8   18   18   
48    8   9   14   18   
48    9   14   17   18   
24    9   9   14   17   
24    9   9   10   17   
