Server version 2018.02.28. K-point grid has 128 total points and 22 distinct points. Actual minimum periodic distance is 18.0 Angstroms. Grid includes gamma point. 
22
Fractional
0.00000000000000 0.00000000000000 0.00000000000000 1.0 ! 1
0.31250000000000 0.00000000000000 0.25000000000000 8.0 ! 2
0.62500000000000 0.00000000000000 0.50000000000000 8.0 ! 3
0.93750000000000 0.00000000000000 0.75000000000000 8.0 ! 4
0.25000000000000 0.00000000000000 1.00000000000000 2.0 ! 5
0.56250000000000 0.00000000000000 0.25000000000000 8.0 ! 6
0.18750000000000 0.00000000000000 0.75000000000000 8.0 ! 7
0.50000000000000 0.00000000000000 1.00000000000000 1.0 ! 8
0.62500000000000 0.25000000000000 0.25000000000000 8.0 ! 9
0.93750000000000 0.25000000000000 0.50000000000000 16.0 ! 10
0.25000000000000 0.25000000000000 0.75000000000000 8.0 ! 11
0.18750000000000 0.25000000000000 0.50000000000000 16.0 ! 12
0.50000000000000 0.25000000000000 0.75000000000000 4.0 ! 13
0.12500000000000 0.25000000000000 0.25000000000000 8.0 ! 14
0.00000000000000 0.25000000000000 0.75000000000000 4.0 ! 15
0.25000000000000 0.50000000000000 0.50000000000000 2.0 ! 16
0.50000000000000 0.50000000000000 0.50000000000000 2.0 ! 17
0.87500000000000 0.00000000000000 0.00000000000000 2.0 ! 18
0.50000000000000 0.00000000000000 0.50000000000000 4.0 ! 19
0.75000000000000 0.00000000000000 0.50000000000000 4.0 ! 20
0.37500000000000 0.00000000000000 1.00000000000000 2.0 ! 21
0.12500000000000 0.50000000000000 0.50000000000000 4.0 ! 22
Tetrahedra
60    0.0013020833333333333
16    1   4   4   15   
8    1   4   4   18   
8    11   12   12   14   
32    11   12   12   16   
16    11   12   12   19   
8    12   12   14   22   
16    12   12   16   22   
16    2   11   12   14   
16    2   11   12   19   
8    2   2   11   14   
8    2   2   14   18   
8    2   2   5   11   
8    2   2   5   18   
16    2   3   12   14   
16    2   3   12   19   
16    2   3   4   14   
16    2   4   14   18   
16    2   5   7   11   
16    2   7   11   19   
16    3   4   10   14   
16    3   4   10   20   
16    3   6   7   9   
16    3   6   9   10   
16    3   6   10   20   
16    3   7   12   19   
16    3   7   9   12   
16    3   9   10   12   
16    3   10   12   14   
8    4   4   14   15   
8    4   4   14   18   
8    4   4   15   20   
16    4   10   14   15   
16    4   10   15   20   
8    5   7   7   11   
8    5   7   7   21   
8    6   6   13   20   
16    6   6   8   13   
8    6   6   8   21   
8    6   6   9   13   
8    6   6   9   21   
16    6   7   9   21   
16    6   9   10   13   
16    6   10   13   20   
16    7   11   12   19   
8    7   7   9   11   
8    7   7   9   21   
16    7   9   11   12   
8    9   11   12   12   
8    9   12   12   22   
16    9   10   12   22   
8    9   10   10   13   
8    9   10   10   22   
16    10   12   14   22   
16    10   10   13   17   
8    10   10   13   20   
8    10   10   14   15   
8    10   10   14   22   
16    10   10   15   17   
8    10   10   15   20   
16    10   10   17   22   
