 Generator version 2019.03.05. K-point grid has 175 total points and 24 distinct points. Actual minimum periodic distance is 19.78635893740938 Angstroms. Grid includes gamma point. 
24
Fractional
0.00000000000000 0.00000000000000 0.00000000000000 1.0 ! 1
0.31428571428571 0.00000000000000 0.20000000000000 8.0 ! 2
0.62857142857143 0.00000000000000 0.40000000000000 8.0 ! 3
0.94285714285714 0.00000000000000 0.60000000000000 8.0 ! 4
0.25714285714286 0.00000000000000 0.80000000000000 8.0 ! 5
0.57142857142857 0.00000000000000 1.00000000000000 2.0 ! 6
0.20000000000000 0.00000000000000 0.40000000000000 4.0 ! 7
0.51428571428571 0.00000000000000 0.60000000000000 8.0 ! 8
0.82857142857143 0.00000000000000 0.80000000000000 8.0 ! 9
0.14285714285714 0.00000000000000 1.00000000000000 2.0 ! 10
0.40000000000000 0.00000000000000 0.80000000000000 4.0 ! 11
0.71428571428571 0.00000000000000 1.00000000000000 2.0 ! 12
0.62857142857143 0.20000000000000 0.20000000000000 8.0 ! 13
0.94285714285714 0.20000000000000 0.40000000000000 16.0 ! 14
0.20000000000000 0.20000000000000 0.20000000000000 4.0 ! 15
0.51428571428571 0.20000000000000 0.40000000000000 16.0 ! 16
0.82857142857143 0.20000000000000 0.60000000000000 16.0 ! 17
0.14285714285714 0.20000000000000 0.80000000000000 8.0 ! 18
0.40000000000000 0.20000000000000 0.60000000000000 8.0 ! 19
0.71428571428571 0.20000000000000 0.80000000000000 8.0 ! 20
0.25714285714286 0.40000000000000 0.40000000000000 8.0 ! 21
0.57142857142857 0.40000000000000 0.60000000000000 8.0 ! 22
0.40000000000000 0.40000000000000 0.40000000000000 4.0 ! 23
0.71428571428571 0.40000000000000 0.60000000000000 8.0 ! 24
Tetrahedra
135    9.523809523809524E-4
8    1   7   9   15   
4    1   9   15   15   
8    1   9   9   15   
4    1   9   9   9   
8    11   11   13   19   
8    11   13   19   19   
8    13   14   14   22   
8    13   14   17   22   
8    13   17   19   22   
8    13   19   19   22   
8    14   14   20   24   
8    14   14   21   22   
8    14   14   21   24   
8    14   16   18   21   
8    14   16   20   24   
16    14   16   21   24   
8    14   17   18   21   
16    14   17   21   22   
8    14   21   21   22   
8    14   21   21   24   
8    15   17   17   23   
8    15   17   19   23   
8    16   16   18   21   
16    16   16   20   24   
8    16   16   21   24   
16    16   16   24   24   
8    16   21   24   24   
8    16   24   24   24   
8    17   17   18   21   
8    17   17   21   22   
8    17   17   22   23   
16    17   19   22   23   
8    17   21   22   22   
8    17   22   22   23   
8    19   19   22   23   
8    19   22   23   23   
4    2   12   20   20   
8    2   16   16   18   
8    2   16   16   20   
8    2   2   12   20   
8    2   2   16   18   
8    2   2   16   20   
4    2   2   2   12   
4    2   2   2   10   
8    2   2   10   18   
4    2   4   16   16   
16    2   4   16   18   
4    2   4   18   18   
8    2   4   8   16   
8    2   4   10   18   
8    2   8   12   20   
4    2   8   16   16   
16    2   8   16   20   
4    2   8   20   20   
8    2   8   8   16   
4    2   10   18   18   
4    21   21   22   22   
4    21   21   24   24   
4    22   22   23   23   
2    24   24   24   24   
4    3   11   13   13   
16    3   11   13   19   
4    3   11   19   19   
8    3   13   14   17   
8    3   13   14   22   
8    3   13   17   19   
8    3   13   19   22   
8    3   14   17   22   
8    3   17   19   22   
4    3   4   14   14   
16    3   4   14   17   
4    3   4   17   17   
8    3   4   5   14   
8    3   4   9   17   
4    3   5   13   13   
16    3   5   13   14   
4    3   5   14   14   
8    3   5   6   13   
8    3   6   11   13   
8    3   7   11   19   
4    3   7   17   17   
16    3   7   17   19   
4    3   7   19   19   
8    3   7   9   17   
8    4   14   16   18   
8    4   14   16   21   
8    4   14   17   18   
8    4   14   17   21   
8    4   16   18   21   
8    4   17   18   21   
8    4   5   8   14   
4    4   8   14   14   
16    4   8   14   16   
4    4   8   16   16   
4    4   9   17   17   
16    4   9   17   18   
4    4   9   18   18   
8    4   9   10   18   
4    5   12   20   20   
8    5   13   14   14   
8    5   14   14   20   
8    5   5   12   20   
8    5   5   13   14   
8    5   5   14   20   
4    5   5   5   12   
4    5   5   5   6   
8    5   5   6   13   
4    5   6   13   13   
8    5   8   12   20   
4    5   8   14   14   
16    5   8   14   20   
4    5   8   20   20   
4    6   11   11   11   
8    6   11   11   13   
4    6   11   13   13   
8    7   15   17   19   
8    7   15   17   23   
8    7   17   19   23   
4    7   9   15   15   
16    7   9   15   17   
4    7   9   17   17   
8    8   14   16   20   
8    8   14   16   24   
8    8   14   20   24   
8    8   16   16   20   
8    8   16   16   24   
8    8   16   20   24   
12    8   8   16   16   
8    9   15   17   17   
8    9   17   17   18   
8    9   9   15   17   
8    9   9   17   18   
4    9   9   9   10   
8    9   9   10   18   
4    9   10   18   18   
