Server version 2018.02.28. K-point grid has 30 total points and 12 distinct points. Actual minimum periodic distance is 17.572955094405717 Angstroms. Grid includes gamma point. 
12
Fractional
0.00000000000000 0.00000000000000 0.00000000000000 1.0 ! 1
0.20000000000000 0.73333333333333 0.83333333333333 4.0 ! 2
0.40000000000000 0.46666666666667 0.66666666666667 4.0 ! 3
0.60000000000000 0.20000000000000 0.50000000000000 2.0 ! 4
0.80000000000000 0.93333333333333 0.33333333333333 4.0 ! 5
0.00000000000000 0.66666666666667 0.16666666666667 2.0 ! 6
0.20000000000000 0.40000000000000 0.00000000000000 2.0 ! 7
0.40000000000000 0.13333333333333 0.83333333333333 4.0 ! 8
0.80000000000000 0.60000000000000 0.50000000000000 2.0 ! 9
0.00000000000000 0.33333333333333 0.33333333333333 2.0 ! 10
0.40000000000000 0.80000000000000 0.00000000000000 2.0 ! 11
0.00000000000000 0.00000000000000 0.50000000000000 1.0 ! 12
Tetrahedra
45    0.005555555555555556
2    1   2   2   12   
2    1   2   2   6   
8    1   2   5   11   
4    1   2   5   12   
4    1   2   5   6   
2    1   5   5   12   
2    1   5   5   6   
2    2   2   6   10   
2    2   2   10   12   
4    2   3   4   5   
4    2   3   4   8   
4    2   3   5   10   
4    2   3   7   8   
4    2   3   7   10   
4    2   3   8   8   
4    2   4   5   11   
8    2   4   5   12   
4    2   4   8   11   
4    2   5   6   8   
4    2   5   8   11   
4    2   5   10   12   
4    2   6   7   8   
4    2   6   7   10   
4    2   8   8   11   
4    3   3   4   5   
4    3   3   4   8   
4    3   3   5   8   
4    3   4   5   11   
4    3   4   8   11   
8    3   4   8   9   
4    3   5   8   11   
4    3   5   8   9   
4    3   5   9   10   
8    3   7   8   11   
4    3   7   8   9   
4    3   7   9   10   
4    3   8   8   11   
2    5   5   6   10   
2    5   5   10   12   
4    5   6   8   9   
4    5   6   9   10   
4    6   7   7   10   
4    6   7   8   9   
4    6   7   9   10   
4    6   9   9   10   
