Server version 2018.02.28. K-point grid has 432 total points and 22 distinct points. Actual minimum periodic distance is 29.91776786620746 Angstroms. Grid includes gamma point. 
22
Fractional
0.00000000000000 0.00000000000000 0.00000000000000 1.0 ! 1
0.91666666666667 0.08333333333333 0.00000000000000 12.0 ! 2
0.83333333333333 0.16666666666667 0.00000000000000 12.0 ! 3
0.75000000000000 0.25000000000000 0.00000000000000 12.0 ! 4
0.66666666666667 0.33333333333333 0.00000000000000 12.0 ! 5
0.58333333333333 0.41666666666667 0.00000000000000 12.0 ! 6
0.50000000000000 0.50000000000000 0.00000000000000 3.0 ! 7
0.83333333333333 0.08333333333333 0.08333333333333 24.0 ! 8
0.75000000000000 0.16666666666667 0.08333333333333 48.0 ! 9
0.66666666666667 0.25000000000000 0.08333333333333 48.0 ! 10
0.58333333333333 0.33333333333333 0.08333333333333 48.0 ! 11
0.50000000000000 0.41666666666667 0.08333333333333 24.0 ! 12
0.66666666666667 0.16666666666667 0.16666666666667 24.0 ! 13
0.50000000000000 0.33333333333333 0.16666666666667 24.0 ! 14
0.41666666666667 0.41666666666667 0.16666666666667 24.0 ! 15
0.33333333333333 0.33333333333333 0.33333333333333 8.0 ! 16
0.16666666666667 0.16666666666667 0.00000000000000 6.0 ! 17
0.91666666666667 0.41666666666667 0.00000000000000 24.0 ! 18
0.66666666666667 0.66666666666667 0.00000000000000 6.0 ! 19
0.91666666666667 0.25000000000000 0.16666666666667 24.0 ! 20
0.75000000000000 0.41666666666667 0.16666666666667 24.0 ! 21
0.66666666666667 0.50000000000000 0.16666666666667 12.0 ! 22
Tetrahedra
149    3.8580246913580245E-4
8    1   2   2   17   
16    1   2   2   2   
8    11   11   12   14   
16    11   11   12   15   
8    11   11   12   22   
24    11   11   13   15   
8    11   11   14   21   
8    11   11   21   21   
16    11   11   21   22   
16    11   12   12   15   
48    11   12   14   15   
16    11   12   14   21   
16    11   12   14   22   
16    11   12   21   22   
16    11   13   14   15   
16    11   14   21   22   
48    11   21   21   22   
8    12   12   12   19   
24    12   12   15   19   
8    12   14   15   15   
16    12   14   15   19   
16    12   14   15   20   
8    12   15   15   19   
16    12   15   19   20   
8    13   13   18   18   
8    13   16   18   18   
24    13   18   18   18   
8    14   15   15   20   
16    14   15   19   20   
8    15   15   19   20   
24    15   19   20   20   
8    16   18   18   18   
8    17   19   20   20   
8    17   20   20   20   
16    18   18   18   18   
8    19   20   20   20   
8    2   2   2   17   
8    2   2   2   8   
24    2   2   8   17   
16    2   2   8   8   
16    2   3   8   17   
16    2   3   8   20   
32    2   3   8   8   
16    2   8   17   20   
8    2   8   8   17   
8    2   8   8   8   
16    21   21   21   22   
8    21   21   22   22   
16    3   4   9   14   
16    3   4   9   20   
32    3   4   9   9   
16    3   8   17   20   
8    3   8   8   16   
8    3   8   8   20   
16    3   8   8   9   
16    3   8   9   16   
48    3   8   9   20   
16    3   8   9   9   
16    3   9   14   20   
8    3   9   9   16   
8    3   9   9   20   
16    4   5   10   14   
16    4   5   10   21   
32    4   5   10   10   
16    4   9   14   20   
8    4   9   9   14   
8    4   9   9   18   
16    4   9   9   10   
48    4   9   10   14   
16    4   9   10   18   
16    4   9   10   10   
16    4   10   14   21   
8    4   10   10   14   
8    4   10   10   18   
8    5   11   11   13   
8    5   11   11   21   
16    5   11   21   22   
32    5   6   11   11   
16    5   6   11   21   
16    5   6   11   22   
16    5   10   11   11   
16    5   10   11   13   
48    5   10   11   21   
16    5   10   14   21   
16    5   10   10   11   
8    5   10   10   13   
8    5   10   10   21   
16    6   11   11   12   
8    6   11   11   15   
8    6   11   11   22   
16    6   11   12   12   
16    6   11   12   15   
48    6   11   12   22   
16    6   11   21   22   
8    6   12   12   15   
8    6   12   12   22   
8    6   6   12   22   
8    6   6   7   12   
32    6   7   12   12   
16    6   7   12   22   
8    7   12   12   12   
8    7   12   12   19   
8    8   15   20   20   
24    8   17   20   20   
8    8   8   17   20   
8    8   8   8   16   
16    8   8   9   16   
16    8   9   15   20   
16    8   9   20   20   
8    8   9   9   15   
40    8   9   9   16   
16    8   9   9   20   
16    9   11   13   15   
16    9   11   14   15   
16    9   13   14   15   
16    9   13   16   18   
16    9   13   18   18   
48    9   14   15   20   
16    9   15   20   20   
16    9   16   18   18   
24    9   9   13   15   
8    9   9   13   16   
16    9   9   13   18   
8    9   9   14   20   
16    9   9   15   20   
40    9   9   16   18   
16    9   9   10   18   
16    9   10   11   13   
16    9   10   11   14   
16    9   10   13   14   
16    9   10   13   15   
48    9   10   13   18   
16    9   10   14   15   
16    9   10   10   18   
16    10   11   11   13   
16    10   11   11   21   
16    10   11   13   14   
16    10   11   13   15   
16    10   11   14   15   
48    10   11   14   21   
32    10   11   21   21   
16    10   13   13   18   
32    10   13   18   18   
8    10   10   11   11   
64    10   10   11   13   
32    10   10   11   21   
8    10   10   13   13   
56    10   10   13   18   
8    10   10   14   21   
