HCP str #: 2                                                                    
2.926
  1.00000000  0.00000000  0.00000000
 -0.50000000  0.86602540  0.00000000
  0.00000000  0.00000000  1.63299320
  1   1 
D
  0.00000000   0.00000000   0.00000000
  0.66666666   0.33333332   0.49999999
