Server version 2018.02.28. K-point grid has 135 total points and 18 distinct points. Actual minimum periodic distance is 15.203941922400002 Angstroms. Grid includes gamma point. 
18
Fractional
0.00000000000000 0.00000000000000 0.00000000000000 1.0 ! 1
0.88888888888889 0.22222222222222 0.00000000000000 6.0 ! 2
0.77777777777778 0.44444444444444 0.00000000000000 6.0 ! 3
0.66666666666667 0.66666666666667 0.00000000000000 2.0 ! 4
0.55555555555556 0.88888888888889 0.00000000000000 6.0 ! 5
0.33333333333333 0.66666666666667 0.00000000000000 6.0 ! 6
0.00000000000000 0.00000000000000 0.20000000000000 2.0 ! 7
0.88888888888889 0.22222222222222 0.20000000000000 12.0 ! 8
0.77777777777778 0.44444444444444 0.20000000000000 12.0 ! 9
0.66666666666667 0.66666666666667 0.20000000000000 4.0 ! 10
0.55555555555556 0.88888888888889 0.20000000000000 12.0 ! 11
0.33333333333333 0.66666666666667 0.20000000000000 12.0 ! 12
0.00000000000000 0.00000000000000 0.40000000000000 2.0 ! 13
0.88888888888889 0.22222222222222 0.40000000000000 12.0 ! 14
0.77777777777778 0.44444444444444 0.40000000000000 12.0 ! 15
0.66666666666667 0.66666666666667 0.40000000000000 4.0 ! 16
0.55555555555556 0.88888888888889 0.40000000000000 12.0 ! 17
0.33333333333333 0.66666666666667 0.40000000000000 12.0 ! 18
Tetrahedra
129    0.0012345679012345679
4    1   2   2   7   
8    1   2   2   8   
4    1   2   7   8   
4    1   2   8   8   
4    1   7   8   8   
8    11   11   12   17   
4    11   11   12   18   
4    11   11   17   18   
4    11   12   15   17   
4    11   12   15   18   
4    11   12   17   17   
4    11   12   17   18   
8    11   15   16   17   
8    11   15   17   18   
8    11   17   17   18   
4    12   14   14   18   
8    12   14   15   18   
8    12   15   17   18   
4    12   17   17   18   
6    13   13   14   14   
12    13   14   14   14   
12    14   14   14   18   
12    14   14   15   18   
6    14   14   18   18   
12    14   15   15   18   
12    14   15   18   18   
12    15   15   16   17   
12    15   15   17   18   
12    15   16   16   17   
12    15   16   17   17   
12    15   17   17   18   
12    15   17   18   18   
12    17   17   17   18   
6    17   17   18   18   
4    2   2   6   12   
8    2   2   6   8   
4    2   2   7   8   
4    2   2   8   12   
8    2   3   6   12   
8    2   3   6   8   
8    2   3   6   9   
4    2   3   8   12   
4    2   3   9   12   
4    2   6   8   12   
4    2   6   8   8   
4    2   6   8   9   
4    2   6   9   12   
8    2   7   8   8   
8    2   8   8   12   
8    2   8   9   12   
8    3   4   5   11   
8    3   4   5   9   
8    3   4   5   10   
4    3   4   9   11   
4    3   4   10   11   
4    3   5   11   12   
8    3   5   6   11   
8    3   5   6   12   
8    3   5   6   9   
4    3   5   9   12   
4    3   5   9   10   
4    3   5   10   11   
4    3   6   11   12   
4    3   6   8   12   
4    3   6   8   9   
4    3   6   9   11   
8    3   8   9   12   
8    3   9   11   12   
8    3   9   10   11   
4    4   5   9   11   
4    4   5   9   10   
8    4   9   10   11   
8    5   11   11   12   
4    5   5   11   12   
8    5   5   6   11   
4    5   5   6   12   
4    5   6   11   11   
4    5   6   11   12   
4    5   6   9   11   
4    5   6   9   12   
8    5   9   11   12   
8    5   9   10   11   
4    6   11   11   12   
4    6   8   8   12   
8    6   8   9   12   
8    6   9   11   12   
4    7   13   14   14   
4    7   8   13   14   
4    7   8   14   14   
4    7   8   8   13   
8    7   8   8   14   
4    8   12   14   14   
4    8   12   14   15   
4    8   12   14   18   
4    8   12   15   18   
8    8   13   14   14   
8    8   14   14   18   
8    8   14   15   18   
8    8   8   12   14   
4    8   8   12   18   
4    8   8   13   14   
4    8   8   14   18   
8    8   9   12   14   
8    8   9   12   15   
8    8   9   12   18   
4    8   9   14   18   
4    8   9   15   18   
8    9   11   12   15   
8    9   11   12   17   
8    9   11   12   18   
4    9   11   15   16   
4    9   11   15   18   
4    9   11   16   17   
4    9   11   17   18   
4    9   12   14   15   
4    9   12   14   18   
4    9   12   15   17   
4    9   12   17   18   
8    9   14   15   18   
8    9   15   16   17   
8    9   15   17   18   
8    9   10   11   15   
8    9   10   11   16   
8    9   10   11   17   
4    9   10   15   17   
4    9   10   16   17   
4    10   11   15   16   
4    10   11   15   17   
8    10   15   16   17   
