BCC str #: 329                                                                  
3.169
 -1.00000000  0.00000000  1.00000000
  0.50000000 -1.50000000 -0.50000000
  1.50000000  0.50000000  1.50000000
  3   6 
D
  0.00000000   0.00000000   0.00000000
  0.22222222   0.44444444   0.33333333
  0.88888889   0.77777778   0.33333333
  0.44444444   0.88888889   0.66666667
  0.66666667   0.33333333   0.00000000
  0.11111111   0.22222222   0.66666667
  0.33333333   0.66666667   0.00000000
  0.55555556   0.11111111   0.33333333
  0.77777778   0.55555556   0.66666667
