 Generator version 2019.03.05. K-point grid has 275 total points and 36 distinct points. Actual minimum periodic distance is 23.526580712037184 Angstroms. Grid includes gamma point. 
36
Fractional
0.00000000000000 0.00000000000000 0.00000000000000 1.0 ! 1
0.23636363636364 0.00000000000000 0.20000000000000 8.0 ! 2
0.47272727272727 0.00000000000000 0.40000000000000 8.0 ! 3
0.70909090909091 0.00000000000000 0.60000000000000 8.0 ! 4
0.94545454545455 0.00000000000000 0.80000000000000 8.0 ! 5
0.18181818181818 0.00000000000000 1.00000000000000 2.0 ! 6
0.41818181818182 0.00000000000000 0.20000000000000 8.0 ! 7
0.65454545454545 0.00000000000000 0.40000000000000 8.0 ! 8
0.12727272727273 0.00000000000000 0.80000000000000 8.0 ! 9
0.36363636363636 0.00000000000000 1.00000000000000 2.0 ! 10
0.60000000000000 0.00000000000000 0.20000000000000 4.0 ! 11
0.83636363636364 0.00000000000000 0.40000000000000 8.0 ! 12
0.30909090909091 0.00000000000000 0.80000000000000 8.0 ! 13
0.54545454545455 0.00000000000000 1.00000000000000 2.0 ! 14
0.01818181818182 0.00000000000000 0.40000000000000 8.0 ! 15
0.72727272727273 0.00000000000000 1.00000000000000 2.0 ! 16
0.20000000000000 0.00000000000000 0.40000000000000 4.0 ! 17
0.90909090909091 0.00000000000000 1.00000000000000 2.0 ! 18
0.47272727272727 0.20000000000000 0.20000000000000 8.0 ! 19
0.70909090909091 0.20000000000000 0.40000000000000 16.0 ! 20
0.94545454545455 0.20000000000000 0.60000000000000 16.0 ! 21
0.18181818181818 0.20000000000000 0.80000000000000 8.0 ! 22
0.65454545454545 0.20000000000000 0.20000000000000 8.0 ! 23
0.12727272727273 0.20000000000000 0.60000000000000 16.0 ! 24
0.36363636363636 0.20000000000000 0.80000000000000 8.0 ! 25
0.20000000000000 0.20000000000000 0.20000000000000 4.0 ! 26
0.43636363636364 0.20000000000000 0.40000000000000 16.0 ! 27
0.90909090909091 0.20000000000000 0.80000000000000 8.0 ! 28
0.61818181818182 0.20000000000000 0.40000000000000 16.0 ! 29
0.80000000000000 0.20000000000000 0.40000000000000 8.0 ! 30
0.94545454545455 0.40000000000000 0.40000000000000 8.0 ! 31
0.18181818181818 0.40000000000000 0.60000000000000 8.0 ! 32
0.12727272727273 0.40000000000000 0.40000000000000 8.0 ! 33
0.36363636363636 0.40000000000000 0.60000000000000 8.0 ! 34
0.30909090909091 0.40000000000000 0.40000000000000 8.0 ! 35
0.40000000000000 0.40000000000000 0.40000000000000 4.0 ! 36
Tetrahedra
138    6.060606060606061E-4
8    1   5   5   18   
16    1   5   5   26   
4    11   11   14   14   
8    11   11   14   23   
4    11   11   23   23   
16    11   13   14   23   
8    11   23   23   30   
16    12   13   20   25   
16    12   15   27   29   
16    12   20   25   29   
16    12   20   27   29   
8    13   13   14   23   
8    13   13   23   25   
16    13   20   23   25   
16    15   22   24   27   
16    15   24   27   29   
8    17   21   21   26   
8    17   21   21   30   
8    19   22   24   24   
8    19   24   24   33   
16    19   24   29   33   
8    19   25   29   29   
8    19   29   29   33   
8    20   20   23   25   
8    20   20   23   31   
8    20   20   25   34   
8    20   20   31   34   
16    20   21   27   35   
16    20   21   30   31   
16    20   21   31   35   
16    20   23   30   31   
16    20   25   29   34   
16    20   27   29   34   
16    20   27   34   35   
16    20   31   34   35   
16    2   15   22   27   
8    2   2   18   28   
8    2   2   22   28   
8    2   2   6   18   
8    2   2   6   22   
16    2   22   27   28   
16    2   4   15   27   
16    2   4   27   28   
16    2   4   5   28   
16    2   5   18   28   
16    2   6   9   22   
16    2   9   15   22   
8    21   21   26   28   
16    21   21   26   36   
8    21   21   28   35   
8    21   21   30   36   
8    21   21   35   36   
16    21   27   28   35   
16    21   30   31   36   
16    21   31   35   36   
8    22   24   24   32   
16    22   24   27   32   
8    22   27   27   28   
8    22   27   27   32   
4    23   23   30   30   
8    23   30   30   31   
16    24   24   29   33   
8    24   24   32   33   
8    24   24   33   33   
16    24   27   29   32   
16    24   29   32   33   
16    24   32   33   33   
8    25   29   29   34   
8    27   27   28   35   
8    27   27   32   35   
16    27   29   32   34   
16    27   32   34   35   
8    29   29   33   34   
16    29   32   33   34   
4    30   30   31   31   
8    30   31   31   36   
16    3   12   15   29   
16    3   15   24   29   
16    3   19   24   29   
16    3   24   24   29   
16    3   3   15   24   
8    3   3   24   24   
16    3   7   12   29   
16    3   7   19   29   
16    3   7   9   19   
16    3   9   15   24   
16    3   9   19   24   
4    31   31   35   35   
8    31   31   35   36   
8    31   31   36   36   
8    31   34   35   35   
4    32   32   33   33   
8    32   32   33   34   
4    32   32   34   34   
8    32   33   33   33   
8    32   34   34   35   
2    33   33   33   33   
4    34   34   35   35   
16    4   12   15   27   
16    4   12   20   27   
16    4   20   21   27   
16    4   21   27   28   
16    4   5   17   21   
16    4   5   21   28   
16    4   8   12   20   
16    4   8   17   21   
16    4   8   20   21   
16    5   17   21   26   
16    5   21   26   28   
8    5   5   17   26   
8    5   5   18   28   
8    5   5   26   28   
8    6   9   9   16   
8    6   9   9   22   
16    7   12   13   25   
16    7   12   25   29   
16    7   19   25   29   
8    7   7   16   19   
8    7   7   19   25   
8    7   7   10   16   
8    7   7   10   25   
16    7   9   16   19   
16    7   10   13   25   
16    8   11   13   23   
16    8   11   23   30   
16    8   12   13   20   
16    8   13   20   23   
16    8   17   21   30   
16    8   20   21   30   
16    8   20   23   30   
8    8   8   11   30   
8    8   8   17   30   
16    9   15   22   24   
16    9   19   22   24   
8    9   9   16   19   
8    9   9   19   22   
8    10   13   13   14   
8    10   13   13   25   
