Server version 2018.02.28. K-point grid has 16 total points and 6 distinct points. Actual minimum periodic distance is 5.408326913195984 Angstroms. Grid includes gamma point. 
6
Fractional
0.00000000000000 0.00000000000000 0.00000000000000 1.0 ! 1
0.75000000000000 0.25000000000000 0.50000000000000 8.0 ! 2
0.50000000000000 0.50000000000000 0.00000000000000 2.0 ! 3
0.75000000000000 0.00000000000000 0.00000000000000 2.0 ! 4
0.25000000000000 0.50000000000000 0.00000000000000 2.0 ! 5
0.50000000000000 0.00000000000000 0.00000000000000 1.0 ! 6
Tetrahedra
17    0.010416666666666666
4    1   2   2   2   
4    1   2   2   5   
4    1   2   2   6   
4    1   2   5   5   
8    1   2   5   6   
8    2   2   2   3   
8    2   2   2   4   
8    2   2   2   5   
4    2   2   2   6   
4    2   2   3   3   
8    2   2   3   4   
4    2   2   4   4   
4    2   2   5   5   
4    2   2   5   6   
8    2   3   3   4   
8    2   3   4   4   
4    2   5   5   6   
