Server version 2018.02.28. K-point grid has 16 total points and 4 distinct points. Actual minimum periodic distance is 12.17077543749781 Angstroms. Grid includes gamma point. 
4
Fractional
0.00000000000000 0.00000000000000 0.00000000000000 1.0 ! 1
1.00000000000000 0.25000000000000 0.75000000000000 6.0 ! 2
1.00000000000000 0.50000000000000 0.50000000000000 3.0 ! 3
0.25000000000000 0.25000000000000 0.25000000000000 6.0 ! 4
Tetrahedra
15    0.010416666666666666
2    1   2   2   2   
2    1   2   2   3   
4    1   2   2   4   
4    1   2   3   4   
10    1   2   4   4   
2    1   3   4   4   
4    2   2   2   2   
6    2   2   2   3   
2    2   2   3   3   
12    2   2   3   4   
4    2   2   4   4   
4    2   3   3   4   
30    2   3   4   4   
8    2   4   4   4   
2    3   3   4   4   
