 Generator version 2019.03.05. K-point grid has 16 total points and 8 distinct points. Actual minimum periodic distance is 13.72217252296443 Angstroms. Grid includes gamma point. 
8
Fractional
0.00000000000000 0.00000000000000 0.00000000000000 1.0 ! 1
0.25000000000000 0.87500000000000 0.50000000000000 2.0 ! 2
0.50000000000000 0.75000000000000 0.00000000000000 2.0 ! 3
0.75000000000000 0.62500000000000 0.50000000000000 2.0 ! 4
0.00000000000000 0.50000000000000 0.00000000000000 1.0 ! 5
0.00000000000000 0.25000000000000 0.50000000000000 2.0 ! 6
0.25000000000000 0.12500000000000 0.00000000000000 4.0 ! 7
0.50000000000000 0.00000000000000 0.50000000000000 2.0 ! 8
Tetrahedra
16    0.010416666666666666
4    1   2   6   6   
8    1   2   6   7   
4    1   2   7   7   
8    1   5   6   7   
4    2   3   7   7   
8    2   3   7   8   
4    2   3   8   8   
8    2   4   6   7   
8    2   4   7   8   
8    3   3   7   8   
4    3   4   7   7   
8    3   4   7   8   
4    3   4   8   8   
4    4   5   6   6   
8    4   5   6   7   
4    4   5   7   7   
