 Generator version 2019.03.05. K-point grid has 64 total points and 8 distinct points. Actual minimum periodic distance is 16.28517011449852 Angstroms. Grid includes gamma point. 
8
Fractional
0.00000000000000 0.00000000000000 0.00000000000000 1.0 ! 1
0.00000000000000 0.25000000000000 0.00000000000000 8.0 ! 2
0.00000000000000 0.50000000000000 0.00000000000000 4.0 ! 3
0.00000000000000 0.25000000000000 0.25000000000000 6.0 ! 4
0.00000000000000 0.50000000000000 0.25000000000000 24.0 ! 5
0.00000000000000 0.75000000000000 0.25000000000000 12.0 ! 6
0.00000000000000 0.50000000000000 0.50000000000000 3.0 ! 7
0.25000000000000 0.75000000000000 0.50000000000000 6.0 ! 8
Tetrahedra
9    0.0026041666666666665
24    1   2   2   4   
24    2   2   4   6   
48    2   3   5   6   
48    2   4   5   6   
48    3   5   5   6   
24    4   5   5   6   
24    4   5   5   7   
96    5   5   6   8   
48    5   5   7   8   
