 Generator version 2019.03.05. K-point grid has 63 total points and 16 distinct points. Actual minimum periodic distance is 9.0 Angstroms. Grid includes gamma point. 
16
Fractional
0.00000000000000 0.00000000000000 0.00000000000000 1.0 ! 1
0.38095238095238 0.33333333333333 0.00000000000000 4.0 ! 2
0.76190476190476 0.66666666666667 0.00000000000000 4.0 ! 3
0.14285714285714 0.00000000000000 0.00000000000000 2.0 ! 4
0.52380952380952 0.33333333333333 0.00000000000000 4.0 ! 5
0.28571428571429 0.00000000000000 0.00000000000000 2.0 ! 6
0.66666666666667 0.33333333333333 0.00000000000000 2.0 ! 7
0.42857142857143 0.00000000000000 0.00000000000000 2.0 ! 8
0.38095238095238 0.00000000000000 0.33333333333333 4.0 ! 9
0.76190476190476 0.33333333333333 0.33333333333333 8.0 ! 10
0.14285714285714 0.66666666666667 0.33333333333333 8.0 ! 11
0.52380952380952 0.00000000000000 0.33333333333333 4.0 ! 12
0.28571428571429 0.66666666666667 0.33333333333333 8.0 ! 13
0.66666666666667 0.00000000000000 0.33333333333333 2.0 ! 14
0.33333333333333 0.33333333333333 0.33333333333333 4.0 ! 15
0.09523809523810 0.00000000000000 0.33333333333333 4.0 ! 16
Tetrahedra
60    0.0026455026455026454
8    1   14   15   16   
4    1   3   15   15   
8    1   3   15   16   
4    1   3   16   16   
4    11   11   13   13   
2    13   13   13   13   
8    2   11   13   13   
8    2   13   13   13   
8    2   2   13   13   
4    2   4   11   11   
8    2   4   9   11   
4    2   4   9   9   
4    2   5   11   11   
8    2   5   11   13   
4    2   5   13   13   
4    2   6   13   13   
8    2   6   9   13   
4    2   6   9   9   
8    2   9   11   13   
8    2   9   13   13   
4    3   4   11   11   
8    3   4   11   16   
4    3   4   16   16   
4    3   5   11   11   
8    3   5   10   11   
4    3   5   10   10   
4    3   7   15   15   
8    3   7   10   15   
4    3   7   10   10   
8    3   10   11   16   
8    3   10   15   16   
8    3   10   10   11   
8    3   10   10   15   
8    4   11   12   16   
8    4   9   11   12   
8    5   11   11   13   
8    5   11   12   13   
4    5   6   12   12   
8    5   6   12   13   
4    5   6   13   13   
4    5   8   12   12   
8    5   8   10   12   
4    5   8   10   10   
8    5   10   11   11   
8    5   10   11   12   
8    6   9   12   13   
8    6   9   9   13   
4    7   8   14   14   
8    7   8   10   14   
4    7   8   10   10   
8    7   10   14   15   
8    7   10   15   15   
8    8   10   12   16   
8    8   10   14   16   
8    9   11   12   13   
4    9   9   13   13   
8    10   11   12   16   
8    10   14   15   16   
4    10   10   11   11   
4    10   10   15   15   
