Niggli ID: 18
1.5
	-2.0	-1.0	1.0
	-3.0	1.0	0.0
	-1.0	-3.0	0.0
1
D
	0.0	0.0	0.0
