Server version 2018.02.28. K-point grid has 6 total points and 4 distinct points. Actual minimum periodic distance is 9.507 Angstroms. Grid includes gamma point. 
4
Fractional
0.00000000000000 0.00000000000000 0.00000000000000 1.0 ! 1
0.33333333333333 0.83333333333333 0.50000000000000 2.0 ! 2
0.66666666666667 0.66666666666667 0.00000000000000 2.0 ! 3
0.00000000000000 0.50000000000000 0.50000000000000 1.0 ! 4
Tetrahedra
6    0.027777777777777776
4    1   1   2   4   
4    1   2   2   3   
8    1   2   3   4   
4    1   3   4   4   
12    2   2   3   3   
4    2   3   3   4   
