Server version 2018.02.28. K-point grid has 40 total points and 15 distinct points. Actual minimum periodic distance is 19.014 Angstroms. Grid includes gamma point. 
15
Fractional
0.00000000000000 0.00000000000000 0.00000000000000 1.0 ! 1
0.20000000000000 0.90000000000000 0.75000000000000 4.0 ! 2
0.40000000000000 0.80000000000000 0.50000000000000 2.0 ! 3
0.60000000000000 0.70000000000000 0.25000000000000 4.0 ! 4
0.80000000000000 0.60000000000000 0.00000000000000 2.0 ! 5
0.00000000000000 0.50000000000000 0.75000000000000 2.0 ! 6
0.20000000000000 0.40000000000000 0.50000000000000 2.0 ! 7
0.60000000000000 0.20000000000000 0.00000000000000 2.0 ! 8
0.00000000000000 0.00000000000000 0.50000000000000 1.0 ! 9
0.00000000000000 0.25000000000000 0.62500000000000 2.0 ! 10
0.20000000000000 0.15000000000000 0.37500000000000 4.0 ! 11
0.40000000000000 0.05000000000000 0.12500000000000 4.0 ! 12
0.20000000000000 0.65000000000000 0.12500000000000 4.0 ! 13
0.60000000000000 0.45000000000000 0.62500000000000 4.0 ! 14
0.00000000000000 0.25000000000000 0.12500000000000 2.0 ! 15
Tetrahedra
60    0.004166666666666667
4    1   2   13   15   
4    1   2   2   13   
4    1   2   9   15   
4    1   2   9   10   
4    1   2   10   13   
4    1   10   13   15   
4    2   11   12   13   
4    2   11   13   14   
4    2   11   13   15   
4    2   2   3   11   
4    2   2   8   13   
4    2   2   9   11   
4    2   3   11   12   
4    2   3   11   14   
4    2   3   8   12   
4    2   3   8   14   
4    2   8   12   13   
4    2   8   13   14   
4    2   9   11   15   
4    2   9   10   11   
4    2   10   11   13   
4    3   11   12   14   
4    3   12   14   14   
4    3   4   12   14   
4    3   4   14   14   
4    3   4   4   14   
4    3   4   8   12   
4    3   4   8   14   
4    4   11   12   14   
4    4   12   12   14   
4    4   12   13   14   
4    4   12   14   14   
4    4   4   5   12   
4    4   4   7   14   
4    4   4   8   12   
4    4   5   11   12   
4    4   5   12   13   
4    4   5   7   11   
4    4   5   7   13   
4    4   7   11   14   
4    4   7   13   14   
4    4   8   12   12   
4    4   8   12   14   
4    5   11   12   13   
4    5   11   13   15   
4    5   6   11   15   
4    5   6   13   15   
4    5   6   6   15   
4    5   6   7   11   
4    5   6   7   13   
4    6   6   7   10   
4    6   7   10   11   
4    6   7   10   13   
4    6   10   11   15   
4    6   10   13   15   
4    7   11   13   14   
4    7   10   11   13   
4    8   12   12   14   
4    8   12   13   14   
4    9   10   11   15   
