Server version 2018.02.28. K-point grid has 12 total points and 6 distinct points. Actual minimum periodic distance is 11.425991991945383 Angstroms. Grid includes gamma point. 
6
Fractional
0.00000000000000 0.00000000000000 0.00000000000000 1.0 ! 1
0.33333333333333 0.83333333333333 0.50000000000000 2.0 ! 2
0.66666666666667 0.66666666666667 0.00000000000000 2.0 ! 3
1.00000000000000 0.50000000000000 0.50000000000000 1.0 ! 4
0.00000000000000 0.25000000000000 0.25000000000000 2.0 ! 5
0.33333333333333 0.08333333333333 0.75000000000000 4.0 ! 6
Tetrahedra
9    0.013888888888888888
4    1   2   5   5   
8    1   2   5   6   
4    1   2   6   6   
8    1   4   5   6   
8    2   3   5   6   
24    2   3   6   6   
4    3   4   5   5   
8    3   4   5   6   
4    3   4   6   6   
