Server version 2018.02.28. K-point grid has 25 total points and 5 distinct points. Actual minimum periodic distance is 14.43548200615414 Angstroms. Grid includes gamma point. 
5
Fractional
0.00000000000000 0.00000000000000 0.00000000000000 1.0 ! 1
1.00000000000000 0.20000000000000 0.40000000000000 6.0 ! 2
1.00000000000000 0.40000000000000 0.80000000000000 6.0 ! 3
0.20000000000000 0.20000000000000 0.20000000000000 6.0 ! 4
0.20000000000000 0.40000000000000 0.60000000000000 6.0 ! 5
Tetrahedra
23    0.006666666666666667
2    1   2   2   2   
2    1   2   2   3   
4    1   2   2   4   
4    1   2   3   4   
10    1   2   4   4   
2    1   3   4   4   
4    2   2   2   2   
6    2   2   2   3   
2    2   2   3   3   
4    2   2   3   4   
8    2   2   3   5   
4    2   3   3   5   
6    2   3   4   4   
16    2   3   4   5   
16    2   3   5   5   
4    2   4   4   5   
4    2   4   5   5   
8    3   3   4   4   
8    3   3   4   5   
2    3   3   5   5   
8    3   4   4   5   
24    3   4   5   5   
2    4   4   5   5   
