 Generator version 2019.03.05. K-point grid has 75 total points and 10 distinct points. Actual minimum periodic distance is 14.334414309600003 Angstroms. Grid includes gamma point. 
10
Fractional
0.00000000000000 0.00000000000000 0.00000000000000 1.0 ! 1
0.20000000000000 0.00000000000000 0.00000000000000 6.0 ! 2
0.40000000000000 0.00000000000000 0.00000000000000 6.0 ! 3
0.40000000000000 0.80000000000000 0.00000000000000 6.0 ! 4
0.60000000000000 0.80000000000000 0.00000000000000 6.0 ! 5
0.00000000000000 0.00000000000000 0.33333333333333 2.0 ! 6
0.20000000000000 0.00000000000000 0.33333333333333 12.0 ! 7
0.40000000000000 0.00000000000000 0.33333333333333 12.0 ! 8
0.40000000000000 0.80000000000000 0.33333333333333 12.0 ! 9
0.60000000000000 0.80000000000000 0.33333333333333 12.0 ! 10
Tetrahedra
70    0.0022222222222222222
4    1   2   2   6   
8    1   2   2   7   
4    1   2   6   7   
4    1   2   7   7   
4    1   6   7   7   
8    2   2   4   7   
4    2   2   4   9   
4    2   2   6   7   
4    2   2   7   9   
8    2   3   4   7   
8    2   3   4   8   
8    2   3   4   9   
4    2   3   7   9   
4    2   3   8   9   
4    2   4   7   7   
4    2   4   7   8   
4    2   4   7   9   
4    2   4   8   9   
8    2   6   7   7   
8    2   7   7   9   
8    2   7   8   9   
8    3   3   5   8   
4    3   3   5   10   
4    3   3   8   10   
8    3   4   5   8   
8    3   4   5   9   
8    3   4   5   10   
4    3   4   7   8   
4    3   4   7   9   
4    3   4   8   10   
4    3   4   9   10   
4    3   5   8   8   
4    3   5   8   9   
4    3   5   8   10   
4    3   5   9   10   
8    3   7   8   9   
8    3   8   8   10   
8    3   8   9   10   
4    4   5   5   9   
8    4   5   5   10   
4    4   5   8   9   
4    4   5   8   10   
4    4   5   9   10   
4    4   5   10   10   
4    4   7   7   9   
8    4   7   8   9   
8    4   8   9   10   
4    4   9   10   10   
4    5   5   5   10   
4    5   5   9   10   
4    5   5   10   10   
4    5   8   8   10   
8    5   8   9   10   
8    5   9   10   10   
4    5   10   10   10   
6    6   6   7   7   
12    6   7   7   7   
12    7   7   7   9   
12    7   7   8   9   
6    7   7   9   9   
12    7   8   8   9   
12    7   8   9   9   
12    8   8   8   10   
12    8   8   9   10   
6    8   8   10   10   
12    8   9   9   10   
12    8   9   10   10   
6    9   9   10   10   
12    9   10   10   10   
6    10   10   10   10   
