Server version 2018.02.28. K-point grid has 27 total points and 4 distinct points. Actual minimum periodic distance is 12.213877585873888 Angstroms. Grid includes gamma point. 
4
Fractional
0.00000000000000 0.00000000000000 0.00000000000000 1.0 ! 1
0.00000000000000 0.33333333333333 0.00000000000000 8.0 ! 2
0.00000000000000 0.33333333333333 0.33333333333333 6.0 ! 3
0.00000000000000 0.66666666666667 0.33333333333333 12.0 ! 4
Tetrahedra
7    0.006172839506172839
24    1   2   2   3   
24    2   2   3   4   
24    2   2   4   4   
48    2   3   4   4   
12    3   3   4   4   
24    3   4   4   4   
6    4   4   4   4   
