Server version 2018.02.28. K-point grid has 180 total points and 21 distinct points. Actual minimum periodic distance is 17.555999942461614 Angstroms. Grid includes gamma point. 
21
Fractional
0.00000000000000 0.00000000000000 0.00000000000000 1.0 ! 1
0.16666666666667 0.00000000000000 0.00000000000000 6.0 ! 2
0.33333333333333 0.00000000000000 0.00000000000000 6.0 ! 3
0.50000000000000 0.00000000000000 0.00000000000000 3.0 ! 4
0.33333333333333 0.83333333333333 0.00000000000000 6.0 ! 5
0.50000000000000 0.83333333333333 0.00000000000000 12.0 ! 6
0.66666666666667 0.66666666666667 0.00000000000000 2.0 ! 7
0.00000000000000 0.00000000000000 0.20000000000000 2.0 ! 8
0.16666666666667 0.00000000000000 0.20000000000000 12.0 ! 9
0.33333333333333 0.00000000000000 0.20000000000000 12.0 ! 10
0.50000000000000 0.00000000000000 0.20000000000000 6.0 ! 11
0.33333333333333 0.83333333333333 0.20000000000000 12.0 ! 12
0.50000000000000 0.83333333333333 0.20000000000000 24.0 ! 13
0.66666666666667 0.66666666666667 0.20000000000000 4.0 ! 14
0.00000000000000 0.00000000000000 0.40000000000000 2.0 ! 15
0.16666666666667 0.00000000000000 0.40000000000000 12.0 ! 16
0.33333333333333 0.00000000000000 0.40000000000000 12.0 ! 17
0.50000000000000 0.00000000000000 0.40000000000000 6.0 ! 18
0.33333333333333 0.83333333333333 0.40000000000000 12.0 ! 19
0.50000000000000 0.83333333333333 0.40000000000000 24.0 ! 20
0.66666666666667 0.66666666666667 0.40000000000000 4.0 ! 21
Tetrahedra
161    9.25925925925926E-4
4    1   2   2   8   
8    1   2   2   9   
4    1   2   8   9   
4    1   2   9   9   
4    1   8   9   9   
4    11   13   13   18   
8    11   13   13   20   
4    11   13   17   18   
4    11   13   17   20   
4    11   13   18   20   
4    11   13   20   20   
8    11   17   18   20   
4    11   18   20   20   
4    12   13   13   19   
8    12   13   13   20   
4    12   13   17   19   
4    12   13   17   20   
4    12   13   19   20   
4    12   13   20   20   
4    12   16   16   19   
8    12   16   17   19   
8    12   17   19   20   
4    12   19   20   20   
16    13   13   14   20   
8    13   13   14   21   
4    13   13   18   20   
4    13   13   19   20   
8    13   13   20   21   
8    13   14   20   20   
8    13   14   20   21   
8    13   17   18   20   
8    13   17   19   20   
8    13   18   20   20   
8    13   19   20   20   
16    13   20   20   21   
8    14   20   20   21   
6    15   15   16   16   
12    15   16   16   16   
12    16   16   16   19   
12    16   16   17   19   
6    16   16   19   19   
12    16   17   17   19   
12    16   17   19   19   
12    17   17   18   20   
12    17   17   19   20   
12    17   18   18   20   
12    17   18   20   20   
12    17   19   19   20   
12    17   19   20   20   
6    18   18   20   20   
12    18   20   20   20   
6    19   19   20   20   
12    19   20   20   20   
24    20   20   20   21   
12    20   20   21   21   
4    2   2   5   12   
8    2   2   5   9   
4    2   2   8   9   
4    2   2   9   12   
8    2   3   5   12   
8    2   3   5   9   
8    2   3   5   10   
4    2   3   9   12   
4    2   3   10   12   
4    2   5   9   12   
4    2   5   9   9   
4    2   5   9   10   
4    2   5   10   12   
8    2   8   9   9   
8    2   9   9   12   
8    2   9   10   12   
4    3   4   11   13   
8    3   4   6   11   
8    3   4   6   13   
8    3   4   6   10   
4    3   4   10   13   
4    3   5   12   13   
8    3   5   6   12   
8    3   5   6   13   
8    3   5   6   10   
4    3   5   9   12   
4    3   5   9   10   
4    3   5   10   13   
4    3   6   11   13   
4    3   6   12   13   
4    3   6   10   11   
4    3   6   10   12   
8    3   9   10   12   
8    3   10   11   13   
8    3   10   12   13   
4    4   11   13   13   
4    4   6   11   13   
4    4   6   13   13   
4    4   6   6   11   
8    4   6   6   13   
4    4   6   10   11   
4    4   6   10   13   
8    4   10   11   13   
4    5   12   13   13   
4    5   6   12   13   
4    5   6   13   13   
4    5   6   6   12   
8    5   6   6   13   
4    5   6   10   12   
4    5   6   10   13   
4    5   9   9   12   
8    5   9   10   12   
8    5   10   12   13   
8    6   11   13   13   
8    6   12   13   13   
16    6   13   13   14   
4    6   6   11   13   
4    6   6   12   13   
8    6   6   13   14   
16    6   6   7   13   
8    6   6   7   14   
8    6   7   13   13   
8    6   7   13   14   
8    6   10   11   13   
8    6   10   12   13   
8    7   13   13   14   
4    8   15   16   16   
4    8   9   15   16   
4    8   9   16   16   
4    8   9   9   15   
8    8   9   9   16   
4    9   12   16   16   
4    9   12   16   17   
4    9   12   16   19   
4    9   12   17   19   
8    9   15   16   16   
8    9   16   16   19   
8    9   16   17   19   
8    9   9   12   16   
4    9   9   12   19   
4    9   9   15   16   
4    9   9   16   19   
8    9   10   12   16   
8    9   10   12   17   
8    9   10   12   19   
4    9   10   16   19   
4    9   10   17   19   
8    10   11   13   17   
8    10   11   13   18   
8    10   11   13   20   
4    10   11   17   20   
4    10   11   18   20   
8    10   12   13   17   
8    10   12   13   19   
8    10   12   13   20   
4    10   12   16   17   
4    10   12   16   19   
4    10   12   17   20   
4    10   12   19   20   
4    10   13   17   18   
4    10   13   17   19   
4    10   13   18   20   
4    10   13   19   20   
8    10   16   17   19   
8    10   17   18   20   
8    10   17   19   20   
