 Generator version 2019.03.05. K-point grid has 63 total points and 20 distinct points. Actual minimum periodic distance is 21.19916518993142 Angstroms. Grid includes gamma point. 
20
Fractional
0.00000000000000 0.00000000000000 0.00000000000000 1.0 ! 1
0.14285714285714 0.76190476190476 0.88888888888889 4.0 ! 2
0.28571428571429 0.52380952380952 0.77777777777778 4.0 ! 3
0.42857142857143 0.28571428571429 0.66666666666667 4.0 ! 4
0.57142857142857 0.04761904761905 0.55555555555556 4.0 ! 5
0.71428571428572 0.80952380952381 0.44444444444444 4.0 ! 6
0.85714285714286 0.57142857142857 0.33333333333333 4.0 ! 7
0.00000000000000 0.33333333333333 0.22222222222222 2.0 ! 8
0.28571428571429 0.85714285714286 1.00000000000000 2.0 ! 9
0.42857142857143 0.61904761904762 0.88888888888889 4.0 ! 10
0.57142857142857 0.38095238095238 0.77777777777778 4.0 ! 11
0.71428571428572 0.14285714285714 0.66666666666667 4.0 ! 12
0.85714285714286 0.90476190476190 0.55555555555556 4.0 ! 13
0.00000000000000 0.66666666666667 0.44444444444444 2.0 ! 14
0.57142857142858 0.71428571428571 1.00000000000000 2.0 ! 15
0.71428571428572 0.47619047619048 0.88888888888889 4.0 ! 16
0.85714285714286 0.23809523809524 0.77777777777778 4.0 ! 17
0.00000000000001 0.00000000000000 0.66666666666667 2.0 ! 18
0.85714285714286 0.57142857142857 0.00000000000000 2.0 ! 19
0.00000000000001 0.33333333333333 0.88888888888889 2.0 ! 20
Tetrahedra
101    0.0026455026455026454
2    1   17   17   18   
2    1   17   17   20   
4    1   2   17   18   
4    1   2   17   20   
2    1   2   2   18   
2    1   2   2   20   
8    1   2   9   17   
2    12   12   13   13   
4    12   13   13   18   
4    12   13   17   18   
2    13   13   14   18   
4    13   13   18   18   
4    13   14   17   18   
2    14   17   17   18   
2    14   17   17   20   
4    2   12   13   18   
4    2   12   17   18   
4    2   16   17   20   
4    2   16   19   20   
2    2   2   8   18   
2    2   2   8   20   
4    2   3   12   13   
4    2   3   16   19   
4    2   3   8   13   
4    2   3   8   19   
4    2   3   10   12   
4    2   3   10   16   
4    2   8   13   18   
4    2   8   19   20   
4    2   9   12   17   
4    2   9   16   17   
4    2   9   10   12   
4    2   9   10   16   
8    3   15   16   19   
4    3   4   11   15   
4    3   4   15   16   
4    3   4   5   11   
4    3   4   5   6   
4    3   4   6   7   
4    3   4   7   16   
4    3   5   12   13   
4    3   5   6   13   
4    3   5   10   11   
4    3   5   10   12   
4    3   6   7   13   
4    3   7   16   19   
4    3   7   8   13   
4    3   7   8   19   
4    3   10   11   15   
4    3   10   15   16   
2    4   4   5   5   
4    4   4   5   6   
2    4   4   6   6   
4    4   5   11   12   
4    4   5   5   11   
4    4   5   5   12   
4    4   5   5   6   
4    4   5   6   11   
4    4   5   10   11   
4    4   5   10   12   
4    4   6   11   16   
4    4   6   6   7   
4    4   6   7   16   
4    4   10   11   12   
4    4   10   11   15   
4    4   10   11   16   
4    4   10   15   16   
4    5   12   12   13   
2    5   5   12   12   
4    5   5   6   11   
4    5   6   11   12   
4    5   6   12   13   
4    6   11   12   17   
4    6   11   16   17   
4    6   12   13   17   
4    6   13   14   17   
2    6   6   7   7   
4    6   7   13   14   
4    6   7   14   17   
4    6   7   16   17   
4    6   7   7   14   
4    7   14   17   20   
4    7   16   17   20   
4    7   16   19   20   
4    7   7   14   14   
2    7   7   14   20   
2    7   7   8   14   
2    7   7   8   20   
4    7   8   13   14   
4    7   8   19   20   
2    8   13   13   14   
2    8   13   13   18   
4    8   19   19   20   
4    9   11   12   17   
4    9   11   16   17   
4    9   10   11   12   
8    9   10   11   15   
4    9   10   11   16   
4    10   10   11   15   
4    10   10   11   16   
4    10   10   15   16   
