 Generator version 2019.03.05. K-point grid has 27 total points and 6 distinct points. Actual minimum periodic distance is 8.777999971230807 Angstroms. Grid includes gamma point. 
6
Fractional
0.00000000000000 0.00000000000000 0.00000000000000 1.0 ! 1
0.33333333333333 0.00000000000000 0.00000000000000 6.0 ! 2
0.66666666666667 0.66666666666667 0.00000000000000 2.0 ! 3
0.00000000000000 0.00000000000000 0.33333333333333 2.0 ! 4
0.33333333333333 0.00000000000000 0.33333333333333 12.0 ! 5
0.66666666666667 0.66666666666667 0.33333333333333 4.0 ! 6
Tetrahedra
18    0.006172839506172839
4    1   2   2   4   
8    1   2   2   5   
4    1   2   4   5   
4    1   2   5   5   
4    1   4   5   5   
16    2   2   3   5   
8    2   2   3   6   
4    2   2   4   5   
8    2   2   5   6   
8    2   3   5   5   
8    2   3   5   6   
8    2   4   5   5   
16    2   5   5   6   
8    3   5   5   6   
6    4   4   5   5   
12    4   5   5   5   
24    5   5   5   6   
12    5   5   6   6   
