 Generator version 2019.03.05. K-point grid has 120 total points and 26 distinct points. Actual minimum periodic distance is 11.715374513859981 Angstroms. Grid includes gamma point. 
26
Fractional
0.00000000000000 0.00000000000000 0.00000000000000 1.0 ! 1
0.90833333333333 0.16666666666667 0.75000000000000 8.0 ! 2
0.81666666666667 0.33333333333333 0.50000000000000 8.0 ! 3
0.72500000000000 0.50000000000000 0.25000000000000 8.0 ! 4
0.63333333333333 0.66666666666667 0.00000000000000 4.0 ! 5
0.54166666666667 0.83333333333333 0.75000000000000 8.0 ! 6
0.45000000000000 0.00000000000000 0.50000000000000 4.0 ! 7
0.35833333333333 0.16666666666667 0.25000000000000 8.0 ! 8
0.26666666666667 0.33333333333333 0.00000000000000 4.0 ! 9
0.17500000000000 0.50000000000000 0.75000000000000 8.0 ! 10
0.08333333333333 0.66666666666667 0.50000000000000 4.0 ! 11
0.90000000000000 0.00000000000000 0.00000000000000 2.0 ! 12
0.71666666666667 0.33333333333333 0.50000000000000 8.0 ! 13
0.62500000000000 0.50000000000000 0.25000000000000 4.0 ! 14
0.53333333333333 0.66666666666667 0.00000000000000 4.0 ! 15
0.44166666666667 0.83333333333333 0.75000000000000 8.0 ! 16
0.35000000000000 0.00000000000000 0.50000000000000 4.0 ! 17
0.16666666666667 0.33333333333333 0.00000000000000 2.0 ! 18
0.80000000000000 0.00000000000000 0.00000000000000 2.0 ! 19
0.43333333333333 0.66666666666667 0.00000000000000 4.0 ! 20
0.34166666666667 0.83333333333333 0.75000000000000 8.0 ! 21
0.25000000000000 0.00000000000000 0.50000000000000 2.0 ! 22
0.70000000000000 0.00000000000000 0.00000000000000 2.0 ! 23
0.33333333333333 0.66666666666667 0.00000000000000 2.0 ! 24
0.60000000000000 0.00000000000000 0.00000000000000 2.0 ! 25
0.50000000000000 0.00000000000000 0.00000000000000 1.0 ! 26
Tetrahedra
111    0.001388888888888889
8    1   2   2   12   
8    1   2   2   18   
8    1   2   2   22   
4    11   21   21   22   
4    11   21   21   24   
8    13   13   14   14   
4    15   16   16   20   
4    15   16   16   23   
4    16   16   17   25   
4    16   16   20   25   
8    16   16   23   25   
8    16   17   21   25   
8    16   20   21   25   
4    17   21   21   22   
4    17   21   21   25   
4    20   21   21   24   
4    20   21   21   25   
8    2   11   21   22   
8    2   17   21   22   
4    2   2   11   18   
4    2   2   11   22   
4    2   2   12   17   
4    2   2   17   22   
4    2   2   9   12   
4    2   2   9   18   
8    2   3   11   21   
8    2   3   17   21   
8    2   3   8   17   
8    2   3   8   9   
8    2   3   9   10   
8    2   3   10   11   
8    2   8   12   17   
8    2   8   9   12   
8    2   9   10   18   
8    2   10   11   18   
8    21   21   22   26   
8    21   21   24   26   
8    21   21   25   26   
8    3   16   17   21   
8    3   16   20   21   
4    3   3   4   4   
8    3   3   4   10   
4    3   3   10   10   
8    3   4   13   16   
8    3   4   16   20   
8    3   4   4   13   
8    3   4   8   13   
8    3   4   8   9   
8    3   4   9   10   
8    3   4   10   20   
8    3   8   13   16   
8    3   8   16   17   
8    3   10   11   21   
8    3   10   20   21   
8    3   10   10   11   
8    4   13   13   14   
8    4   13   14   15   
8    4   13   15   16   
8    4   15   16   20   
4    4   4   13   13   
4    4   4   15   20   
4    4   4   5   15   
4    4   4   5   9   
4    4   4   9   20   
8    4   5   13   14   
8    4   5   14   15   
8    4   5   8   13   
8    4   5   8   9   
8    4   9   10   20   
8    5   14   14   15   
8    5   6   13   14   
8    5   6   14   15   
4    5   6   6   15   
4    5   6   6   19   
8    5   6   8   13   
8    5   6   8   19   
4    5   8   8   19   
4    5   8   8   9   
8    6   13   13   14   
8    6   13   14   15   
8    6   13   15   16   
8    6   15   16   23   
4    6   6   13   13   
4    6   6   15   23   
8    6   6   19   23   
8    6   6   7   13   
4    6   6   7   19   
4    6   6   7   23   
8    6   6   7   7   
8    6   7   13   16   
8    6   7   16   23   
8    6   7   8   13   
8    6   7   8   19   
4    7   16   16   17   
4    7   16   16   23   
8    7   8   13   16   
8    7   8   16   17   
4    7   8   8   17   
4    7   8   8   19   
4    8   8   12   17   
8    8   8   12   19   
4    8   8   9   12   
4    9   10   10   18   
4    9   10   10   20   
8    10   11   21   24   
8    10   20   21   24   
8    10   10   11   11   
4    10   10   11   18   
4    10   10   11   24   
8    10   10   18   24   
4    10   10   20   24   
