Server version 2018.02.28. K-point grid has 125 total points and 10 distinct points. Actual minimum periodic distance is 20.356462643123148 Angstroms. Grid includes gamma point. 
10
Fractional
0.00000000000000 0.00000000000000 0.00000000000000 1.0 ! 1
0.00000000000000 0.20000000000000 0.00000000000000 8.0 ! 2
0.00000000000000 0.40000000000000 0.00000000000000 8.0 ! 3
0.00000000000000 0.20000000000000 0.20000000000000 6.0 ! 4
0.00000000000000 0.40000000000000 0.20000000000000 24.0 ! 5
0.00000000000000 0.60000000000000 0.20000000000000 24.0 ! 6
0.00000000000000 0.80000000000000 0.20000000000000 12.0 ! 7
0.00000000000000 0.40000000000000 0.40000000000000 6.0 ! 8
0.00000000000000 0.60000000000000 0.40000000000000 12.0 ! 9
0.20000000000000 0.60000000000000 0.40000000000000 24.0 ! 10
Tetrahedra
24    0.0013333333333333333
24    1   2   2   4   
24    2   2   4   7   
48    2   3   5   7   
48    2   4   5   7   
24    3   3   6   6   
48    3   5   6   6   
48    3   5   6   7   
24    4   5   5   7   
24    4   5   5   8   
24    5   5   7   10   
24    5   5   8   10   
48    5   6   6   10   
48    5   6   7   10   
48    5   6   9   10   
48    5   8   9   10   
24    6   6   7   10   
24    6   6   9   10   
24    6   6   10   10   
48    6   9   10   10   
12    8   8   9   9   
24    8   9   9   10   
12    9   9   10   10   
24    9   10   10   10   
6    10   10   10   10   
