Server version 2018.02.28. K-point grid has 36 total points and 7 distinct points. Actual minimum periodic distance is 15.524865989759782 Angstroms. Grid includes gamma point. 
7
Fractional
0.00000000000000 0.00000000000000 0.00000000000000 1.0 ! 1
0.66666666666667 0.16666666666667 0.83333333333333 6.0 ! 2
0.33333333333333 0.33333333333333 0.66666666666667 6.0 ! 3
1.00000000000000 0.50000000000000 0.50000000000000 3.0 ! 4
0.50000000000000 0.00000000000000 0.66666666666667 6.0 ! 5
0.16666666666667 0.16666666666667 0.50000000000000 12.0 ! 6
0.00000000000000 0.00000000000000 0.33333333333333 2.0 ! 7
Tetrahedra
33    0.004629629629629629
8    1   2   2   6   
4    1   2   2   7   
4    1   2   6   6   
4    1   2   6   7   
4    1   6   6   7   
2    2   2   4   5   
2    2   2   4   6   
2    2   2   5   5   
10    2   2   5   6   
4    2   2   6   7   
2    2   3   3   4   
10    2   3   3   5   
6    2   3   4   5   
6    2   3   4   6   
6    2   3   5   5   
18    2   3   5   6   
2    2   4   5   6   
4    2   4   6   6   
2    2   5   5   6   
8    2   5   6   6   
8    2   6   6   7   
10    3   3   4   6   
14    3   3   5   6   
18    3   4   5   6   
6    3   4   6   6   
6    3   5   5   6   
6    3   5   6   6   
8    4   5   6   6   
6    4   6   6   6   
2    5   5   6   6   
6    5   6   6   6   
12    6   6   6   7   
6    6   6   7   7   
