 Generator version 2019.03.05. K-point grid has 27 total points and 6 distinct points. Actual minimum periodic distance is 9.0 Angstroms. Grid includes gamma point. 
6
Fractional
0.00000000000000 0.00000000000000 0.00000000000000 1.0 ! 1
0.33333333333333 0.00000000000000 0.33333333333333 8.0 ! 2
0.66666666666667 0.33333333333333 0.33333333333333 8.0 ! 3
1.00000000000000 0.33333333333333 0.66666666666667 4.0 ! 4
0.66666666666667 0.00000000000000 0.00000000000000 2.0 ! 5
0.33333333333333 0.00000000000000 0.66666666666667 4.0 ! 6
Tetrahedra
22    0.006172839506172839
4    1   2   2   2   
8    1   2   2   4   
4    1   2   4   4   
8    1   2   4   6   
4    2   2   2   5   
20    2   2   3   3   
8    2   2   3   4   
16    2   2   3   5   
8    2   3   3   3   
8    2   3   3   4   
4    2   3   3   5   
4    2   3   3   6   
16    2   3   4   6   
8    2   3   5   6   
4    2   4   4   6   
2    3   3   3   3   
4    3   3   4   4   
4    3   3   5   6   
8    3   4   4   6   
8    3   4   6   6   
8    3   5   6   6   
4    5   6   6   6   
