 Generator version 2019.03.05. K-point grid has 96 total points and 32 distinct points. Actual minimum periodic distance is 25.8909433344944 Angstroms. Grid includes gamma point. 
32
Fractional
0.00000000000000 0.00000000000000 0.00000000000000 1.0 ! 1
0.12500000000000 0.93750000000000 0.50000000000000 2.0 ! 2
0.25000000000000 0.87500000000000 0.00000000000000 2.0 ! 3
0.37500000000000 0.81250000000000 0.50000000000000 2.0 ! 4
0.50000000000000 0.75000000000000 0.00000000000000 2.0 ! 5
0.62500000000000 0.68750000000000 0.50000000000000 2.0 ! 6
0.75000000000000 0.62500000000000 0.00000000000000 2.0 ! 7
0.87500000000000 0.56250000000000 0.50000000000000 2.0 ! 8
0.00000000000000 0.50000000000000 0.00000000000000 1.0 ! 9
0.00000000000000 0.08333333333333 0.66666666666667 2.0 ! 10
0.12500000000000 0.02083333333333 0.16666666666667 4.0 ! 11
0.25000000000000 0.95833333333333 0.66666666666667 4.0 ! 12
0.37500000000000 0.89583333333333 0.16666666666667 4.0 ! 13
0.50000000000000 0.83333333333333 0.66666666666667 4.0 ! 14
0.62500000000000 0.77083333333333 0.16666666666667 4.0 ! 15
0.75000000000000 0.70833333333333 0.66666666666667 4.0 ! 16
0.87500000000000 0.64583333333333 0.16666666666667 4.0 ! 17
0.00000000000000 0.58333333333333 0.66666666666667 2.0 ! 18
0.00000000000000 0.16666666666667 0.33333333333333 2.0 ! 19
0.12500000000000 0.10416666666667 0.83333333333333 4.0 ! 20
0.25000000000000 0.04166666666667 0.33333333333333 4.0 ! 21
0.37500000000000 0.97916666666667 0.83333333333333 4.0 ! 22
0.50000000000000 0.91666666666667 0.33333333333333 4.0 ! 23
0.62500000000000 0.85416666666667 0.83333333333333 4.0 ! 24
0.75000000000000 0.79166666666667 0.33333333333333 4.0 ! 25
0.87500000000000 0.72916666666667 0.83333333333333 4.0 ! 26
0.00000000000001 0.66666666666667 0.33333333333333 2.0 ! 27
0.00000000000000 0.25000000000000 1.00000000000000 2.0 ! 28
0.12500000000000 0.18750000000000 0.50000000000000 4.0 ! 29
0.25000000000000 0.12500000000000 0.00000000000000 4.0 ! 30
0.37500000000000 0.06250000000000 0.50000000000000 4.0 ! 31
0.50000000000000 0.00000000000000 0.00000000000000 2.0 ! 32
Tetrahedra
146    0.001736111111111111
2    1   11   11   28   
4    1   11   20   28   
2    1   20   20   28   
8    1   3   11   20   
2    1   10   11   11   
4    1   10   11   20   
2    1   10   20   20   
2    11   11   19   28   
4    11   12   13   21   
4    11   13   21   30   
4    11   19   21   26   
4    11   19   26   28   
4    11   20   28   30   
4    11   21   26   30   
4    11   26   28   30   
4    12   13   14   22   
4    12   14   22   31   
4    12   20   22   25   
4    12   20   25   29   
4    12   21   29   31   
4    12   22   25   31   
4    12   25   29   31   
4    13   14   15   23   
4    13   15   23   32   
4    13   21   23   24   
4    13   21   24   30   
4    13   22   30   32   
4    13   23   24   32   
4    13   24   30   32   
4    14   15   16   24   
4    14   16   24   31   
4    14   22   23   24   
4    14   22   23   31   
4    14   23   24   31   
8    14   23   31   31   
4    15   16   17   25   
4    15   17   25   30   
4    15   22   23   25   
4    15   22   23   32   
4    15   22   25   30   
4    15   22   30   32   
4    15   24   30   32   
4    16   17   18   26   
4    16   18   26   29   
4    16   21   24   26   
4    16   21   24   31   
4    16   21   26   29   
4    16   21   29   31   
4    16   25   29   31   
2    17   17   18   27   
2    17   17   27   28   
4    17   20   25   27   
4    17   20   25   30   
4    17   20   27   28   
4    17   20   28   30   
4    17   26   28   30   
2    18   19   26   26   
4    18   19   26   29   
2    18   19   29   29   
2    18   27   29   29   
4    19   21   26   29   
2    19   26   26   28   
2    20   20   27   28   
4    20   22   25   30   
4    20   25   27   29   
4    2   11   12   21   
4    2   11   19   21   
4    2   12   21   29   
4    2   19   21   29   
4    2   2   10   19   
8    2   4   12   21   
4    2   10   11   12   
4    2   10   11   19   
4    2   10   12   29   
4    2   10   19   29   
4    21   23   24   31   
4    21   24   26   30   
4    22   23   24   32   
4    22   23   25   31   
4    3   11   12   13   
4    3   11   12   20   
4    3   11   13   30   
4    3   11   20   30   
4    3   12   13   22   
4    3   12   20   22   
4    3   13   22   30   
4    3   20   22   30   
8    3   5   13   22   
4    4   12   13   14   
4    4   12   13   21   
4    4   12   14   31   
4    4   12   21   31   
4    4   13   14   23   
4    4   13   21   23   
4    4   14   23   31   
4    4   21   23   31   
8    4   6   14   23   
4    5   13   14   15   
4    5   13   14   22   
4    5   13   15   32   
4    5   13   22   32   
4    5   14   15   24   
4    5   14   22   24   
4    5   15   24   32   
4    5   22   24   32   
8    5   7   15   24   
4    6   14   15   16   
4    6   14   15   23   
4    6   14   16   31   
4    6   14   23   31   
4    6   15   16   25   
4    6   15   23   25   
4    6   16   25   31   
4    6   23   25   31   
8    6   8   16   25   
4    7   15   16   17   
4    7   15   16   24   
4    7   15   17   30   
4    7   15   24   30   
4    7   16   17   26   
4    7   16   24   26   
4    7   17   26   30   
4    7   24   26   30   
8    7   9   17   26   
4    8   16   17   18   
4    8   16   17   25   
4    8   16   18   29   
4    8   16   25   29   
4    8   17   18   27   
4    8   17   25   27   
4    8   18   27   29   
4    8   25   27   29   
4    8   8   18   27   
2    9   17   17   18   
2    9   17   17   28   
4    9   17   18   26   
4    9   17   26   28   
2    9   18   26   26   
2    9   26   26   28   
2    10   11   11   19   
4    10   11   12   20   
4    10   12   20   29   
2    10   19   29   29   
2    10   20   20   27   
4    10   20   27   29   
2    10   27   29   29   
