 Generator version 2019.03.05. K-point grid has 512 total points and 29 distinct points. Actual minimum periodic distance is 32.57034022899704 Angstroms. Grid includes gamma point. 
29
Fractional
0.00000000000000 0.00000000000000 0.00000000000000 1.0 ! 1
0.00000000000000 0.12500000000000 0.00000000000000 8.0 ! 2
0.00000000000000 0.25000000000000 0.00000000000000 8.0 ! 3
0.00000000000000 0.37500000000000 0.00000000000000 8.0 ! 4
0.00000000000000 0.50000000000000 0.00000000000000 4.0 ! 5
0.00000000000000 0.12500000000000 0.12500000000000 6.0 ! 6
0.00000000000000 0.25000000000000 0.12500000000000 24.0 ! 7
0.00000000000000 0.37500000000000 0.12500000000000 24.0 ! 8
0.00000000000000 0.50000000000000 0.12500000000000 24.0 ! 9
0.00000000000000 0.62500000000000 0.12500000000000 24.0 ! 10
0.00000000000000 0.75000000000000 0.12500000000000 24.0 ! 11
0.00000000000000 0.87500000000000 0.12500000000000 12.0 ! 12
0.00000000000000 0.25000000000000 0.25000000000000 6.0 ! 13
0.00000000000000 0.37500000000000 0.25000000000000 24.0 ! 14
0.00000000000000 0.50000000000000 0.25000000000000 24.0 ! 15
0.00000000000000 0.62500000000000 0.25000000000000 24.0 ! 16
0.00000000000000 0.75000000000000 0.25000000000000 12.0 ! 17
0.00000000000000 0.37500000000000 0.37500000000000 6.0 ! 18
0.00000000000000 0.50000000000000 0.37500000000000 24.0 ! 19
0.00000000000000 0.62500000000000 0.37500000000000 12.0 ! 20
0.00000000000000 0.50000000000000 0.50000000000000 3.0 ! 21
0.12500000000000 0.37500000000000 0.25000000000000 24.0 ! 22
0.12500000000000 0.50000000000000 0.25000000000000 48.0 ! 23
0.12500000000000 0.62500000000000 0.25000000000000 24.0 ! 24
0.12500000000000 0.50000000000000 0.37500000000000 24.0 ! 25
0.12500000000000 0.62500000000000 0.37500000000000 48.0 ! 26
0.12500000000000 0.75000000000000 0.37500000000000 24.0 ! 27
0.12500000000000 0.62500000000000 0.50000000000000 12.0 ! 28
0.25000000000000 0.75000000000000 0.50000000000000 6.0 ! 29
Tetrahedra
76    3.255208333333333E-4
24    1   2   2   6   
24    11   11   12   22   
24    11   11   17   22   
48    11   17   22   23   
24    13   14   14   18   
24    13   14   14   22   
24    14   14   18   25   
24    14   14   22   25   
48    14   15   19   25   
48    14   15   23   25   
48    14   18   19   25   
48    14   22   23   25   
48    15   16   20   26   
48    15   16   24   26   
48    15   19   20   26   
48    15   19   25   26   
48    15   23   24   26   
48    15   23   25   26   
24    16   16   17   27   
24    16   16   20   27   
48    16   17   23   27   
48    16   20   26   27   
48    16   23   24   27   
48    16   24   26   27   
24    17   22   23   23   
24    17   23   23   27   
24    18   19   19   21   
24    18   19   19   25   
24    19   19   20   28   
48    19   19   21   28   
24    19   19   25   28   
48    19   20   26   28   
48    19   25   26   28   
24    20   26   26   27   
24    20   26   26   28   
24    2   2   6   12   
48    2   3   7   12   
48    2   6   7   12   
24    22   23   23   25   
24    23   23   25   27   
48    23   24   26   27   
48    23   25   26   27   
48    24   26   26   27   
24    25   26   26   27   
24    25   26   26   28   
96    26   26   27   29   
48    26   26   28   29   
48    3   4   8   11   
48    3   7   11   12   
48    3   7   8   11   
48    4   5   9   10   
48    4   8   9   10   
48    4   8   10   11   
48    5   9   9   10   
24    6   7   7   12   
24    6   7   7   13   
48    7   11   12   22   
48    7   13   14   22   
24    7   7   12   22   
24    7   7   13   22   
48    7   8   11   22   
48    7   8   14   22   
48    8   11   22   23   
48    8   14   15   23   
48    8   14   22   23   
48    8   9   15   23   
48    8   9   10   23   
48    8   10   11   23   
48    9   15   16   24   
48    9   15   23   24   
48    9   9   10   24   
48    9   10   16   24   
48    9   10   23   24   
48    10   11   17   23   
48    10   16   17   23   
48    10   16   23   24   
