Server version 2018.02.28. K-point grid has 48 total points and 11 distinct points. Actual minimum periodic distance is 13.076696830622021 Angstroms. Grid includes gamma point. 
11
Fractional
0.00000000000000 0.00000000000000 0.00000000000000 1.0 ! 1
0.08333333333333 0.75000000000000 0.25000000000000 8.0 ! 2
0.16666666666667 0.50000000000000 0.50000000000000 4.0 ! 3
0.25000000000000 0.25000000000000 0.75000000000000 8.0 ! 4
0.33333333333333 0.00000000000000 1.00000000000000 2.0 ! 5
0.41666666666667 0.75000000000000 0.25000000000000 8.0 ! 6
0.50000000000000 0.50000000000000 0.50000000000000 2.0 ! 7
0.58333333333333 0.50000000000000 0.00000000000000 8.0 ! 8
0.75000000000000 0.00000000000000 0.50000000000000 4.0 ! 9
0.16666666666667 1.00000000000000 0.00000000000000 2.0 ! 10
0.50000000000000 0.00000000000000 1.00000000000000 1.0 ! 11
Tetrahedra
24    0.003472222222222222
16    1   2   2   9   
8    1   2   2   10   
8    2   2   7   9   
8    2   2   8   9   
8    2   2   8   10   
16    2   3   4   8   
16    2   3   6   7   
16    2   3   6   8   
16    2   4   8   10   
16    2   6   7   9   
16    2   6   8   9   
8    3   3   4   4   
16    3   4   4   8   
16    3   4   6   8   
8    4   4   5   8   
8    4   4   5   10   
16    4   4   8   8   
8    4   4   8   10   
16    4   5   6   8   
8    5   6   6   11   
8    5   6   6   8   
8    6   6   7   9   
8    6   6   8   9   
16    6   6   9   11   
