 Generator version 2019.03.05. K-point grid has 729 total points and 35 distinct points. Actual minimum periodic distance is 36.641632757621664 Angstroms. Grid includes gamma point. 
35
Fractional
0.00000000000000 0.00000000000000 0.00000000000000 1.0 ! 1
0.00000000000000 0.11111111111111 0.00000000000000 8.0 ! 2
0.00000000000000 0.22222222222222 0.00000000000000 8.0 ! 3
0.00000000000000 0.33333333333333 0.00000000000000 8.0 ! 4
0.00000000000000 0.44444444444444 0.00000000000000 8.0 ! 5
0.00000000000000 0.11111111111111 0.11111111111111 6.0 ! 6
0.00000000000000 0.22222222222222 0.11111111111111 24.0 ! 7
0.00000000000000 0.33333333333333 0.11111111111111 24.0 ! 8
0.00000000000000 0.44444444444444 0.11111111111111 24.0 ! 9
0.00000000000000 0.55555555555556 0.11111111111111 24.0 ! 10
0.00000000000000 0.66666666666667 0.11111111111111 24.0 ! 11
0.00000000000000 0.77777777777778 0.11111111111111 24.0 ! 12
0.00000000000000 0.88888888888889 0.11111111111111 12.0 ! 13
0.00000000000000 0.22222222222222 0.22222222222222 6.0 ! 14
0.00000000000000 0.33333333333333 0.22222222222222 24.0 ! 15
0.00000000000000 0.44444444444444 0.22222222222222 24.0 ! 16
0.00000000000000 0.55555555555556 0.22222222222222 24.0 ! 17
0.00000000000000 0.66666666666667 0.22222222222222 24.0 ! 18
0.00000000000000 0.77777777777778 0.22222222222222 12.0 ! 19
0.00000000000000 0.33333333333333 0.33333333333333 6.0 ! 20
0.00000000000000 0.44444444444444 0.33333333333333 24.0 ! 21
0.00000000000000 0.55555555555556 0.33333333333333 24.0 ! 22
0.00000000000000 0.66666666666667 0.33333333333333 12.0 ! 23
0.00000000000000 0.44444444444444 0.44444444444444 6.0 ! 24
0.00000000000000 0.55555555555556 0.44444444444444 12.0 ! 25
0.11111111111111 0.33333333333333 0.22222222222222 24.0 ! 26
0.11111111111111 0.44444444444444 0.22222222222222 48.0 ! 27
0.11111111111111 0.55555555555556 0.22222222222222 48.0 ! 28
0.11111111111111 0.44444444444444 0.33333333333333 24.0 ! 29
0.11111111111111 0.55555555555556 0.33333333333333 48.0 ! 30
0.11111111111111 0.66666666666667 0.33333333333333 48.0 ! 31
0.11111111111111 0.77777777777778 0.33333333333333 24.0 ! 32
0.11111111111111 0.55555555555556 0.44444444444444 24.0 ! 33
0.11111111111111 0.66666666666667 0.44444444444444 24.0 ! 34
0.22222222222222 0.66666666666667 0.44444444444444 24.0 ! 35
Tetrahedra
115    2.2862368541380886E-4
24    1   2   2   6   
48    11   12   19   27   
48    11   18   19   27   
48    11   18   27   28   
24    12   12   13   26   
24    12   12   19   26   
48    12   19   26   27   
24    14   15   15   20   
24    14   15   15   26   
24    15   15   20   29   
24    15   15   26   29   
48    15   16   21   29   
48    15   16   27   29   
48    15   20   21   29   
48    15   26   27   29   
48    16   17   22   30   
48    16   17   28   30   
48    16   21   22   30   
48    16   21   29   30   
48    16   27   28   30   
48    16   27   29   30   
48    17   18   23   31   
48    17   18   28   31   
48    17   22   23   31   
48    17   22   30   31   
48    17   28   28   31   
48    17   28   30   31   
24    18   18   19   32   
24    18   18   23   32   
48    18   19   27   32   
48    18   23   31   32   
48    18   27   28   32   
48    18   28   31   32   
24    19   26   27   27   
24    19   27   27   32   
24    20   21   21   24   
24    20   21   21   29   
24    2   2   6   13   
48    2   3   7   13   
48    2   6   7   13   
24    21   21   24   33   
24    21   21   29   33   
48    21   22   25   33   
48    21   22   30   33   
48    21   24   25   33   
48    21   29   30   33   
24    22   22   23   34   
24    22   22   25   34   
48    22   23   31   34   
48    22   25   33   34   
48    22   30   31   34   
48    22   30   33   34   
24    23   31   31   32   
24    23   31   31   34   
12    24   24   25   25   
24    24   25   25   33   
12    25   25   33   33   
24    25   33   33   34   
24    26   27   27   29   
24    27   27   29   32   
48    27   28   30   32   
48    27   29   30   32   
24    28   28   31   31   
48    28   30   31   31   
48    28   30   31   32   
24    29   30   30   32   
24    29   30   30   33   
24    30   30   32   35   
24    30   30   33   35   
48    30   31   31   35   
48    30   31   32   35   
48    30   31   34   35   
48    30   33   34   35   
48    3   4   8   12   
48    3   7   12   13   
48    3   7   8   12   
24    31   31   32   35   
24    31   31   34   35   
24    31   31   35   35   
48    31   34   35   35   
12    33   33   34   34   
24    33   34   34   35   
12    34   34   35   35   
24    34   35   35   35   
6    35   35   35   35   
48    4   5   9   11   
48    4   8   11   12   
48    4   8   9   11   
24    5   5   10   10   
48    5   9   10   11   
48    5   9   10   10   
24    6   7   7   13   
24    6   7   7   14   
48    7   12   13   26   
48    7   14   15   26   
24    7   7   13   26   
24    7   7   14   26   
48    7   8   12   26   
48    7   8   15   26   
48    8   11   12   27   
48    8   12   26   27   
48    8   15   16   27   
48    8   15   26   27   
48    8   9   11   27   
48    8   9   16   27   
48    9   11   27   28   
48    9   16   17   28   
48    9   16   27   28   
48    9   10   11   28   
48    9   10   17   28   
48    9   10   10   28   
48    10   11   18   28   
48    10   17   18   28   
48    10   17   28   28   
24    10   10   28   28   
