Precision
PREC=HIGH
NBANDS=90
ISMEAR=1
SIGMA=0.1
ENMAX = ssenmaxss
ISYM=2
LWAVE=.FALSE.
LCHARG=.FALSE.
EDIFF=1E-5