Cr1Ni3   [FCC,FCC,cF16] (STD_PRIM doi:10
1.224745
   0.00000000000000   2.35056159052260   2.35056159052260
   2.35056159052260   0.00000000000000   2.35056159052260
   2.35056159052260   2.35056159052260   0.00000000000000
1 3 
Direct(4) [A1B3] 
   -0.00000000000000   -0.00000000000000   -0.00000000000000  Cr    
   0.50000000000000   0.50000000000000   0.50000000000000  Ni    
   0.25000000000000   0.25000000000000   0.25000000000000  Ni    
   0.75000000000000   0.75000000000000   0.75000000000000  Ni    

