Server version 2018.02.28. K-point grid has 96 total points and 17 distinct points. Actual minimum periodic distance is 16.15549442140351 Angstroms. Grid includes gamma point. 
17
Fractional
0.00000000000000 0.00000000000000 0.00000000000000 1.0 ! 1
0.37500000000000 0.00000000000000 0.25000000000000 8.0 ! 2
0.75000000000000 0.00000000000000 0.50000000000000 4.0 ! 3
0.50000000000000 0.00000000000000 1.00000000000000 1.0 ! 4
0.75000000000000 0.25000000000000 0.25000000000000 4.0 ! 5
0.12500000000000 0.25000000000000 0.50000000000000 8.0 ! 6
0.25000000000000 0.25000000000000 0.25000000000000 4.0 ! 7
0.50000000000000 0.50000000000000 0.50000000000000 2.0 ! 8
0.83333333333333 0.00000000000000 0.00000000000000 2.0 ! 9
0.20833333333333 0.00000000000000 0.25000000000000 8.0 ! 10
0.58333333333333 0.00000000000000 0.50000000000000 8.0 ! 11
0.33333333333333 0.00000000000000 1.00000000000000 2.0 ! 12
0.70833333333333 0.00000000000000 0.25000000000000 8.0 ! 13
0.58333333333333 0.25000000000000 0.25000000000000 8.0 ! 14
0.95833333333333 0.25000000000000 0.50000000000000 16.0 ! 15
0.08333333333333 0.25000000000000 0.25000000000000 8.0 ! 16
0.33333333333333 0.50000000000000 0.50000000000000 4.0 ! 17
Tetrahedra
77    0.001736111111111111
8    1   3   7   10   
4    1   7   7   10   
8    1   7   10   10   
4    1   10   10   10   
8    11   12   13   14   
4    11   13   14   14   
16    11   13   14   15   
4    11   13   15   15   
8    11   14   15   16   
8    11   14   15   17   
8    11   15   16   17   
4    12   13   13   13   
8    12   13   13   14   
4    12   13   14   14   
8    13   13   14   15   
8    13   14   15   15   
8    14   15   15   17   
8    14   15   16   17   
8    15   15   15   17   
8    15   15   16   17   
8    2   11   12   14   
4    2   11   14   14   
4    2   11   16   16   
4    2   12   14   14   
8    2   2   12   14   
4    2   2   2   12   
4    2   2   2   9   
8    2   2   6   11   
8    2   2   6   14   
8    2   2   6   16   
8    2   2   9   16   
16    2   6   11   14   
16    2   6   11   16   
8    2   6   6   11   
8    2   6   6   14   
8    2   6   6   16   
8    2   9   11   16   
4    2   9   16   16   
4    3   13   15   15   
8    3   4   5   13   
16    3   5   13   15   
4    3   5   5   13   
8    3   5   7   15   
8    3   5   8   15   
4    3   7   7   10   
8    3   7   8   15   
16    3   7   10   15   
8    3   10   13   15   
4    3   10   15   15   
4    4   13   13   13   
8    4   5   13   13   
4    4   5   5   13   
8    5   13   13   15   
8    5   13   15   15   
8    5   7   8   15   
8    5   8   15   15   
8    6   11   14   16   
8    6   11   14   17   
8    6   11   16   17   
8    6   14   16   17   
8    6   6   14   17   
8    6   6   16   17   
8    6   6   6   17   
8    7   8   15   15   
8    7   10   15   15   
8    7   10   10   15   
8    8   15   15   15   
8    9   10   11   16   
4    9   10   16   16   
8    9   10   10   16   
4    9   10   10   10   
8    10   11   13   15   
4    10   11   15   15   
16    10   11   15   16   
4    10   11   16   16   
8    10   15   15   16   
8    10   10   15   16   
