 Generator version 2019.03.05. K-point grid has 196 total points and 28 distinct points. Actual minimum periodic distance is 31.371499454122368 Angstroms. Grid includes gamma point. 
28
Fractional
0.00000000000000 0.00000000000000 0.00000000000000 1.0 ! 1
1.00000000000000 0.14285714285714 0.21428571428571 6.0 ! 2
1.00000000000000 0.28571428571429 0.42857142857143 6.0 ! 3
1.00000000000000 0.42857142857143 0.64285714285714 6.0 ! 4
1.00000000000000 0.57142857142857 0.85714285714286 6.0 ! 5
1.00000000000000 0.71428571428571 0.07142857142857 6.0 ! 6
1.00000000000000 0.85714285714286 0.28571428571429 6.0 ! 7
1.00000000000000 0.00000000000000 0.50000000000000 1.0 ! 8
0.14285714285714 0.00000000000000 0.17857142857143 6.0 ! 9
0.14285714285714 0.14285714285714 0.39285714285714 12.0 ! 10
0.14285714285714 0.28571428571429 0.60714285714286 12.0 ! 11
0.14285714285714 0.42857142857143 0.82142857142857 12.0 ! 12
0.14285714285714 0.57142857142857 0.03571428571429 12.0 ! 13
0.14285714285714 0.85714285714286 0.46428571428571 6.0 ! 14
0.28571428571429 0.14285714285714 0.57142857142857 12.0 ! 15
0.28571428571429 0.28571428571429 0.78571428571429 6.0 ! 16
0.28571428571429 0.42857142857143 0.00000000000000 6.0 ! 17
0.28571428571429 0.57142857142857 0.21428571428571 12.0 ! 18
0.28571428571429 0.85714285714286 0.64285714285714 6.0 ! 19
0.28571428571428 0.85714285714286 0.14285714285714 6.0 ! 20
0.42857142857143 0.00000000000000 0.53571428571429 6.0 ! 21
0.42857142857143 0.28571428571429 0.96428571428571 12.0 ! 22
0.42857142857143 0.57142857142857 0.39285714285714 6.0 ! 23
0.57142857142857 0.57142857142857 0.57142857142857 6.0 ! 24
0.57142857142857 0.57142857142857 0.07142857142857 6.0 ! 25
0.71428571428571 0.00000000000000 0.89285714285714 6.0 ! 26
0.71428571428571 0.28571428571429 0.32142857142857 6.0 ! 27
0.00000000000000 0.00000000000000 0.25000000000000 2.0 ! 28
Tetrahedra
96    8.503401360544217E-4
12    1   2   9   28   
12    1   2   9   9   
12    11   11   15   16   
12    11   11   15   19   
12    11   12   15   16   
12    11   12   16   24   
12    11   15   16   22   
12    11   15   18   22   
12    11   15   19   27   
12    11   16   22   24   
12    11   18   22   24   
12    11   18   23   24   
12    12   13   17   18   
12    12   13   17   25   
12    12   15   16   22   
12    12   15   21   25   
12    12   15   22   25   
24    12   16   17   22   
12    12   16   22   24   
12    12   17   18   22   
12    12   17   22   25   
12    12   18   22   24   
12    12   18   23   24   
12    13   13   17   18   
12    13   13   18   20   
12    13   15   18   22   
12    13   15   21   25   
12    13   15   22   25   
12    13   17   18   22   
12    13   17   22   25   
12    13   18   20   26   
24    16   17   22   22   
12    16   22   22   24   
12    17   22   22   25   
12    2   3   10   14   
12    2   3   10   26   
12    2   7   14   28   
12    2   7   9   28   
12    2   7   9   10   
12    2   7   10   14   
12    2   9   20   26   
12    2   9   9   20   
12    2   9   10   20   
12    2   10   20   26   
12    3   11   18   23   
12    3   11   19   27   
12    3   14   19   27   
12    3   18   23   26   
12    3   4   11   23   
12    3   4   11   27   
12    3   10   11   18   
12    3   10   11   19   
12    3   10   14   19   
12    3   10   18   26   
12    4   11   12   15   
12    4   11   12   24   
12    4   11   15   27   
12    4   11   23   24   
12    4   12   15   21   
12    4   12   23   24   
12    4   15   21   27   
12    4   23   23   24   
12    4   5   12   21   
12    4   5   12   23   
12    5   12   13   18   
12    5   12   13   25   
12    5   12   18   23   
12    5   12   21   25   
12    5   13   18   26   
12    5   13   21   25   
12    5   18   23   26   
12    5   21   21   25   
12    5   6   13   21   
12    5   6   13   26   
12    6   13   15   21   
12    6   13   20   26   
12    6   15   21   27   
12    6   7   9   10   
12    6   7   10   27   
12    6   9   20   26   
12    6   9   10   20   
12    6   10   13   15   
12    6   10   13   20   
12    6   10   15   27   
12    7   14   14   19   
12    7   14   19   27   
12    7   8   14   14   
12    7   8   14   28   
12    7   10   14   19   
12    7   10   19   27   
12    10   11   15   18   
12    10   11   15   19   
12    10   13   15   18   
12    10   13   18   20   
12    10   15   19   27   
12    10   18   20   26   
