 Generator version 2019.03.05. K-point grid has 245 total points and 24 distinct points. Actual minimum periodic distance is 20.481999932871883 Angstroms. Grid includes gamma point. 
24
Fractional
0.00000000000000 0.00000000000000 0.00000000000000 1.0 ! 1
0.14285714285714 0.00000000000000 0.00000000000000 6.0 ! 2
0.28571428571429 0.00000000000000 0.00000000000000 6.0 ! 3
0.42857142857143 1.00000000000000 0.00000000000000 6.0 ! 4
0.28571428571429 0.85714285714286 0.00000000000000 6.0 ! 5
0.42857142857143 0.85714285714286 0.00000000000000 12.0 ! 6
0.57142857142857 0.85714285714286 0.00000000000000 6.0 ! 7
0.57142857142857 0.71428571428571 0.00000000000000 6.0 ! 8
0.00000000000000 0.00000000000000 0.20000000000000 2.0 ! 9
0.14285714285714 0.00000000000000 0.20000000000000 12.0 ! 10
0.28571428571429 0.00000000000000 0.20000000000000 12.0 ! 11
0.42857142857143 1.00000000000000 0.20000000000000 12.0 ! 12
0.28571428571429 0.85714285714286 0.20000000000000 12.0 ! 13
0.42857142857143 0.85714285714286 0.20000000000000 24.0 ! 14
0.57142857142857 0.85714285714286 0.20000000000000 12.0 ! 15
0.57142857142857 0.71428571428571 0.20000000000000 12.0 ! 16
0.00000000000000 0.00000000000000 0.40000000000000 2.0 ! 17
0.14285714285714 0.00000000000000 0.40000000000000 12.0 ! 18
0.28571428571429 0.00000000000000 0.40000000000000 12.0 ! 19
0.42857142857143 1.00000000000000 0.40000000000000 12.0 ! 20
0.28571428571429 0.85714285714286 0.40000000000000 12.0 ! 21
0.42857142857143 0.85714285714286 0.40000000000000 24.0 ! 22
0.57142857142857 0.85714285714286 0.40000000000000 12.0 ! 23
0.57142857142857 0.71428571428571 0.40000000000000 12.0 ! 24
Tetrahedra
238    6.802721088435374E-4
4    1   2   2   9   
8    1   2   2   10   
4    1   2   9   10   
4    1   2   10   10   
4    1   9   10   10   
8    11   12   14   19   
8    11   12   14   20   
8    11   12   14   22   
4    11   12   19   22   
4    11   12   20   22   
8    11   13   14   19   
8    11   13   14   21   
8    11   13   14   22   
4    11   13   18   19   
4    11   13   18   21   
4    11   13   19   22   
4    11   13   21   22   
4    11   14   19   20   
4    11   14   19   21   
4    11   14   20   22   
4    11   14   21   22   
8    11   18   19   21   
8    11   19   20   22   
8    11   19   21   22   
8    12   12   15   20   
4    12   12   15   23   
4    12   12   20   23   
8    12   14   15   20   
8    12   14   15   22   
8    12   14   15   23   
4    12   14   19   20   
4    12   14   19   22   
4    12   14   20   23   
4    12   14   22   23   
4    12   15   20   20   
4    12   15   20   22   
4    12   15   20   23   
4    12   15   22   23   
8    12   19   20   22   
8    12   20   20   23   
8    12   20   22   23   
4    13   14   14   21   
8    13   14   14   22   
4    13   14   19   21   
4    13   14   19   22   
4    13   14   21   22   
4    13   14   22   22   
4    13   18   18   21   
8    13   18   19   21   
8    13   19   21   22   
4    13   21   22   22   
8    14   14   16   22   
4    14   14   16   24   
4    14   14   21   22   
4    14   14   22   24   
8    14   15   16   22   
8    14   15   16   23   
8    14   15   16   24   
4    14   15   20   22   
4    14   15   20   23   
4    14   15   22   24   
4    14   15   23   24   
4    14   16   22   22   
4    14   16   22   23   
4    14   16   22   24   
4    14   16   23   24   
8    14   19   20   22   
8    14   19   21   22   
8    14   20   22   23   
8    14   21   22   22   
8    14   22   22   24   
8    14   22   23   24   
4    15   16   16   23   
8    15   16   16   24   
4    15   16   22   23   
4    15   16   22   24   
4    15   16   23   24   
4    15   16   24   24   
4    15   20   20   23   
8    15   20   22   23   
8    15   22   23   24   
4    15   23   24   24   
4    16   16   16   24   
4    16   16   23   24   
4    16   16   24   24   
4    16   22   22   24   
8    16   22   23   24   
8    16   23   24   24   
4    16   24   24   24   
6    17   17   18   18   
12    17   18   18   18   
12    18   18   18   21   
12    18   18   19   21   
6    18   18   21   21   
12    18   19   19   21   
12    18   19   21   21   
12    19   19   20   22   
12    19   19   21   22   
12    19   20   20   22   
12    19   20   22   22   
12    19   21   21   22   
12    19   21   22   22   
12    20   20   20   23   
12    20   20   22   23   
6    20   20   23   23   
12    20   22   22   23   
12    20   22   23   23   
4    2   2   5   13   
8    2   2   5   10   
4    2   2   9   10   
4    2   2   10   13   
4    2   3   11   13   
8    2   3   5   11   
8    2   3   5   13   
8    2   3   5   10   
4    2   3   10   13   
4    2   5   11   13   
4    2   5   10   11   
4    2   5   10   13   
4    2   5   10   10   
8    2   9   10   10   
8    2   10   11   13   
8    2   10   10   13   
6    21   21   22   22   
12    21   22   22   22   
12    22   22   22   24   
12    22   22   23   24   
6    22   22   24   24   
12    22   23   23   24   
12    22   23   24   24   
6    23   23   24   24   
12    23   24   24   24   
6    24   24   24   24   
8    3   11   12   14   
8    3   11   13   14   
4    3   4   11   14   
4    3   4   12   14   
8    3   4   6   11   
8    3   4   6   12   
8    3   4   6   14   
4    3   5   11   14   
4    3   5   13   14   
8    3   5   6   11   
8    3   5   6   13   
8    3   5   6   14   
4    3   5   10   11   
4    3   5   10   13   
4    3   6   11   12   
4    3   6   11   13   
4    3   6   12   14   
4    3   6   13   14   
8    3   10   11   13   
8    4   11   12   14   
8    4   12   12   15   
8    4   12   14   15   
4    4   4   12   15   
8    4   4   7   12   
4    4   4   7   15   
4    4   6   11   12   
4    4   6   11   14   
4    4   6   12   15   
4    4   6   14   15   
8    4   6   7   12   
8    4   6   7   14   
8    4   6   7   15   
4    4   7   12   12   
4    4   7   12   14   
4    4   7   12   15   
4    4   7   14   15   
8    5   11   13   14   
4    5   13   14   14   
4    5   6   11   13   
4    5   6   11   14   
4    5   6   13   14   
4    5   6   14   14   
4    5   6   6   13   
8    5   6   6   14   
8    5   10   11   13   
4    5   10   10   13   
8    6   11   12   14   
8    6   11   13   14   
8    6   12   14   15   
8    6   13   14   14   
8    6   14   14   16   
8    6   14   15   16   
4    6   6   13   14   
4    6   6   14   16   
8    6   6   8   14   
4    6   6   8   16   
4    6   7   12   14   
4    6   7   12   15   
4    6   7   14   16   
4    6   7   15   16   
8    6   7   8   14   
8    6   7   8   15   
8    6   7   8   16   
4    6   8   14   14   
4    6   8   14   15   
4    6   8   14   16   
4    6   8   15   16   
4    7   12   12   15   
8    7   12   14   15   
8    7   14   15   16   
4    7   15   16   16   
4    7   8   14   15   
4    7   8   14   16   
4    7   8   15   16   
4    7   8   16   16   
4    7   8   8   15   
8    7   8   8   16   
4    8   14   14   16   
8    8   14   15   16   
8    8   15   16   16   
4    8   16   16   16   
4    8   8   15   16   
4    8   8   16   16   
4    8   8   8   16   
4    9   17   18   18   
4    9   10   17   18   
4    9   10   18   18   
4    9   10   10   17   
8    9   10   10   18   
8    10   11   13   18   
8    10   11   13   19   
8    10   11   13   21   
4    10   11   18   21   
4    10   11   19   21   
4    10   13   18   18   
4    10   13   18   19   
4    10   13   18   21   
4    10   13   19   21   
8    10   17   18   18   
8    10   18   18   21   
8    10   18   19   21   
8    10   10   13   18   
4    10   10   13   21   
4    10   10   17   18   
4    10   10   18   21   
