 Generator version 2019.03.05. K-point grid has 216 total points and 16 distinct points. Actual minimum periodic distance is 24.427755171747776 Angstroms. Grid includes gamma point. 
16
Fractional
0.00000000000000 0.00000000000000 0.00000000000000 1.0 ! 1
0.00000000000000 0.16666666666667 0.00000000000000 8.0 ! 2
0.00000000000000 0.33333333333333 0.00000000000000 8.0 ! 3
0.00000000000000 0.50000000000000 0.00000000000000 4.0 ! 4
0.00000000000000 0.16666666666667 0.16666666666667 6.0 ! 5
0.00000000000000 0.33333333333333 0.16666666666667 24.0 ! 6
0.00000000000000 0.50000000000000 0.16666666666667 24.0 ! 7
0.00000000000000 0.66666666666667 0.16666666666667 24.0 ! 8
0.00000000000000 0.83333333333333 0.16666666666667 12.0 ! 9
0.00000000000000 0.33333333333333 0.33333333333333 6.0 ! 10
0.00000000000000 0.50000000000000 0.33333333333333 24.0 ! 11
0.00000000000000 0.66666666666667 0.33333333333333 12.0 ! 12
0.00000000000000 0.50000000000000 0.50000000000000 3.0 ! 13
0.16666666666667 0.50000000000000 0.33333333333333 24.0 ! 14
0.16666666666667 0.66666666666667 0.33333333333333 24.0 ! 15
0.16666666666667 0.66666666666667 0.50000000000000 12.0 ! 16
Tetrahedra
35    7.716049382716049E-4
24    1   2   2   5   
24    11   11   12   16   
48    11   11   13   16   
24    11   11   14   16   
48    11   12   15   16   
48    11   14   15   16   
24    12   14   15   15   
24    12   15   15   16   
24    14   15   15   16   
24    15   15   16   16   
24    2   2   5   9   
48    2   3   6   9   
48    2   5   6   9   
48    3   4   7   8   
48    3   6   7   8   
48    3   6   8   9   
48    4   7   7   8   
24    5   6   6   9   
24    5   6   6   10   
24    6   6   9   14   
24    6   6   10   14   
48    6   7   11   14   
48    6   7   8   14   
48    6   8   9   14   
48    6   10   11   14   
48    7   11   12   15   
48    7   11   14   15   
48    7   7   8   15   
48    7   8   12   15   
48    7   8   14   15   
48    8   12   14   15   
24    8   8   12   14   
24    8   8   9   14   
24    10   11   11   13   
24    10   11   11   14   
