Server version 2018.02.28. K-point grid has 12 total points and 4 distinct points. Actual minimum periodic distance is 5.851999980820538 Angstroms. Grid includes gamma point. 
4
Fractional
0.00000000000000 0.00000000000000 0.00000000000000 1.0 ! 1
0.50000000000000 1.00000000000000 0.00000000000000 3.0 ! 2
0.00000000000000 0.00000000000000 0.33333333333333 2.0 ! 3
0.50000000000000 1.00000000000000 0.33333333333333 6.0 ! 4
Tetrahedra
13    0.013888888888888888
4    1   2   2   3   
8    1   2   2   4   
4    1   2   3   4   
4    1   2   4   4   
4    1   3   4   4   
4    2   2   2   4   
4    2   2   3   4   
4    2   2   4   4   
8    2   3   4   4   
4    2   4   4   4   
6    3   3   4   4   
12    3   4   4   4   
6    4   4   4   4   
