Niggli ID: 19
1.5
	0.5	1.0	1.5
	0.0	2.0	0.0
	0.0	0.0	3.0
1
D
	0.0	0.0	0.0
