 Generator version 2019.03.05. K-point grid has 24 total points and 9 distinct points. Actual minimum periodic distance is 15.765575940954394 Angstroms. Grid includes gamma point. 
9
Fractional
0.00000000000000 0.00000000000000 0.00000000000000 1.0 ! 1
0.25000000000000 0.95833333333333 0.66666666666667 4.0 ! 2
0.50000000000000 0.91666666666667 0.33333333333333 4.0 ! 3
0.75000000000000 0.87500000000000 0.00000000000000 4.0 ! 4
0.00000000000000 0.83333333333333 0.66666666666667 2.0 ! 5
0.50000000000000 0.75000000000000 0.00000000000000 2.0 ! 6
0.75000000000000 0.70833333333333 0.66666666666667 4.0 ! 7
0.00000000000000 0.66666666666667 0.33333333333333 2.0 ! 8
0.00000000000001 0.50000000000000 0.00000000000000 1.0 ! 9
Tetrahedra
32    0.006944444444444444
4    1   2   2   4   
4    1   2   4   5   
4    1   2   4   8   
4    1   2   5   5   
4    1   2   5   8   
4    1   4   5   8   
2    2   2   3   3   
4    2   2   3   4   
4    2   2   4   5   
4    2   2   4   6   
2    2   2   5   5   
8    2   3   3   6   
4    2   3   3   7   
8    2   3   4   6   
8    2   3   4   7   
4    2   4   5   7   
4    2   4   7   8   
4    2   5   7   8   
8    3   3   4   6   
8    3   3   6   7   
2    3   3   7   7   
8    3   4   6   7   
4    3   4   7   7   
4    4   5   7   9   
4    4   5   8   9   
4    4   6   7   7   
4    4   7   7   8   
4    4   7   7   9   
4    4   7   8   9   
4    5   7   8   9   
2    7   7   8   8   
4    7   8   8   9   
