 Generator version 2019.03.05. K-point grid has 4 total points and 2 distinct points. Actual minimum periodic distance is 8.233303513778656 Angstroms. Grid includes gamma point. 
2
Fractional
0.00000000000000 0.00000000000000 0.00000000000000 1.0 ! 1
1.00000000000000 0.50000000000000 0.50000000000000 3.0 ! 2
Tetrahedra
3    0.041666666666666664
6    1   1   2   2   
12    1   2   2   2   
6    2   2   2   2   
