BCC str #: 30                                                                   
3.169
 -1.00000000  0.00000000 -1.00000000
  1.00000000 -1.00000000  0.00000000
 -1.50000000 -1.50000000  0.50000000
  5   2 
D
  0.00000000   0.00000000   0.00000000
  0.57142857   0.28571429   0.14285714
  0.14285714   0.57142857   0.28571429
  0.28571429   0.14285714   0.57142857
  0.85714286   0.42857143   0.71428571
  0.71428571   0.85714286   0.42857143
  0.42857143   0.71428571   0.85714286
