 Generator version 2019.03.05. K-point grid has 48 total points and 8 distinct points. Actual minimum periodic distance is 11.703999961641076 Angstroms. Grid includes gamma point. 
8
Fractional
0.00000000000000 0.00000000000000 0.00000000000000 1.0 ! 1
0.25000000000000 1.00000000000000 0.00000000000000 6.0 ! 2
0.50000000000000 1.00000000000000 0.00000000000000 3.0 ! 3
0.50000000000000 0.75000000000000 0.00000000000000 6.0 ! 4
0.00000000000000 0.00000000000000 0.33333333333333 2.0 ! 5
0.25000000000000 1.00000000000000 0.33333333333333 12.0 ! 6
0.50000000000000 1.00000000000000 0.33333333333333 6.0 ! 7
0.50000000000000 0.75000000000000 0.33333333333333 12.0 ! 8
Tetrahedra
46    0.003472222222222222
4    1   2   2   5   
8    1   2   2   6   
4    1   2   5   6   
4    1   2   6   6   
4    1   5   6   6   
8    2   2   4   6   
4    2   2   4   8   
4    2   2   5   6   
4    2   2   6   8   
8    2   3   4   6   
8    2   3   4   7   
8    2   3   4   8   
4    2   3   6   8   
4    2   3   7   8   
4    2   4   6   6   
4    2   4   6   7   
4    2   4   6   8   
4    2   4   7   8   
8    2   5   6   6   
8    2   6   6   8   
8    2   6   7   8   
4    3   4   4   7   
8    3   4   4   8   
4    3   4   6   7   
4    3   4   6   8   
4    3   4   7   8   
4    3   4   8   8   
8    3   6   7   8   
4    3   7   8   8   
4    4   4   4   8   
4    4   4   7   8   
4    4   4   8   8   
4    4   6   6   8   
8    4   6   7   8   
8    4   7   8   8   
4    4   8   8   8   
6    5   5   6   6   
12    5   6   6   6   
12    6   6   6   8   
12    6   6   7   8   
6    6   6   8   8   
12    6   7   7   8   
12    6   7   8   8   
6    7   7   8   8   
12    7   8   8   8   
6    8   8   8   8   
