 Generator version 2019.03.05. K-point grid has 105 total points and 32 distinct points. Actual minimum periodic distance is 27.029545182078067 Angstroms. Grid includes gamma point. 
32
Fractional
0.00000000000000 0.00000000000000 0.00000000000000 1.0 ! 1
0.14285714285714 0.96190476190476 0.80000000000000 4.0 ! 2
0.28571428571429 0.92380952380952 0.60000000000000 4.0 ! 3
0.42857142857143 0.88571428571429 0.40000000000000 4.0 ! 4
0.57142857142857 0.84761904761905 0.20000000000000 4.0 ! 5
0.71428571428572 0.80952380952381 1.00000000000000 4.0 ! 6
0.85714285714286 0.77142857142857 0.80000000000000 4.0 ! 7
0.00000000000000 0.73333333333333 0.60000000000000 2.0 ! 8
0.14285714285715 0.69523809523810 0.40000000000000 4.0 ! 9
0.28571428571429 0.65714285714286 0.20000000000000 4.0 ! 10
0.42857142857143 0.61904761904762 1.00000000000000 4.0 ! 11
0.71428571428572 0.54285714285714 0.60000000000000 4.0 ! 12
0.85714285714286 0.50476190476190 0.40000000000000 4.0 ! 13
0.00000000000000 0.46666666666667 0.20000000000000 2.0 ! 14
0.14285714285715 0.42857142857143 1.00000000000000 2.0 ! 15
0.28571428571429 0.39047619047619 0.80000000000000 4.0 ! 16
0.42857142857143 0.35238095238095 0.60000000000000 4.0 ! 17
0.71428571428572 0.27619047619048 0.20000000000000 4.0 ! 18
0.85714285714286 0.23809523809524 1.00000000000000 4.0 ! 19
0.00000000000001 0.20000000000000 0.80000000000000 2.0 ! 20
0.28571428571429 0.12380952380952 0.40000000000000 4.0 ! 21
0.42857142857144 0.08571428571429 0.20000000000000 4.0 ! 22
0.85714285714287 0.97142857142857 0.60000000000000 4.0 ! 23
0.00000000000001 0.93333333333333 0.40000000000000 2.0 ! 24
0.28571428571429 0.85714285714286 1.00000000000000 2.0 ! 25
0.42857142857144 0.81904761904762 0.80000000000000 4.0 ! 26
0.85714285714287 0.70476190476190 0.20000000000000 4.0 ! 27
0.00000000000001 0.66666666666667 1.00000000000000 2.0 ! 28
0.42857142857144 0.55238095238095 0.40000000000000 4.0 ! 29
0.00000000000001 0.40000000000000 0.60000000000000 2.0 ! 30
0.42857142857144 0.28571428571429 1.00000000000000 2.0 ! 31
0.00000000000001 0.13333333333333 0.20000000000000 2.0 ! 32
Tetrahedra
160    0.0015873015873015873
4    1   19   20   32   
4    1   2   19   20   
4    1   2   19   32   
4    1   2   20   24   
4    1   2   2   19   
4    1   2   24   32   
4    11   18   25   26   
4    11   22   26   29   
4    11   22   26   31   
4    11   25   26   26   
4    11   26   26   31   
2    12   12   13   13   
4    12   12   13   16   
4    12   12   16   17   
2    12   12   17   17   
4    12   13   13   27   
4    12   13   16   21   
4    12   13   16   27   
4    12   16   17   21   
4    12   17   21   29   
4    13   13   27   30   
2    13   13   30   30   
4    13   14   15   27   
4    13   14   27   30   
4    13   14   30   30   
4    13   15   16   27   
4    14   14   15   28   
4    14   15   27   28   
4    14   27   28   30   
4    16   17   21   22   
4    16   17   22   31   
4    17   21   22   29   
4    17   22   26   29   
4    17   22   26   31   
4    17   22   29   29   
4    19   20   27   28   
4    19   20   28   32   
4    20   27   28   30   
4    2   18   19   23   
4    2   18   19   25   
4    2   19   23   32   
4    2   2   19   25   
4    2   23   23   24   
4    2   23   24   32   
4    2   3   18   23   
4    2   3   18   25   
4    2   3   23   23   
4    2   3   9   23   
4    2   3   9   10   
4    2   3   10   25   
4    2   9   19   20   
4    2   9   20   24   
4    2   9   23   24   
4    2   9   10   19   
4    2   10   19   25   
2    23   23   24   24   
4    23   24   24   32   
4    3   18   21   23   
4    3   18   25   26   
4    3   3   18   23   
2    3   3   23   23   
4    3   3   4   18   
2    3   3   4   4   
4    3   4   18   21   
4    3   4   18   26   
4    3   4   21   29   
4    3   4   26   29   
4    3   4   4   26   
4    3   9   21   23   
4    3   9   10   21   
4    3   10   21   29   
4    3   10   25   26   
4    3   10   26   29   
4    4   11   18   22   
4    4   11   18   26   
4    4   17   26   29   
4    4   17   29   29   
4    4   18   21   22   
4    4   21   22   29   
4    4   22   29   29   
2    4   4   17   17   
4    4   4   17   26   
4    4   5   11   22   
4    4   5   11   26   
4    4   5   17   17   
4    4   5   17   26   
4    4   5   17   29   
4    4   5   22   29   
8    5   11   11   22   
4    5   11   22   29   
4    5   11   22   31   
4    5   11   26   31   
4    5   12   16   17   
4    5   12   17   17   
4    5   12   17   29   
4    5   16   17   31   
4    5   17   26   31   
4    5   6   11   22   
4    5   6   12   16   
4    5   6   16   31   
4    5   6   22   31   
4    5   6   10   11   
4    5   6   10   12   
4    5   10   11   29   
4    5   10   12   29   
4    6   11   18   22   
4    6   12   16   27   
4    6   15   16   16   
4    6   15   16   27   
4    6   16   16   31   
4    6   16   21   22   
4    6   16   22   31   
4    6   18   21   22   
4    6   7   15   16   
4    6   7   15   27   
4    6   7   16   21   
4    6   7   18   19   
4    6   7   18   21   
4    6   7   19   27   
4    6   10   11   18   
4    6   10   12   27   
4    6   10   18   19   
4    6   10   19   27   
4    7   13   14   15   
4    7   13   15   16   
4    7   13   16   21   
4    7   14   15   28   
4    7   15   27   28   
4    7   18   19   23   
4    7   18   21   23   
4    7   19   23   32   
4    7   19   27   28   
4    7   19   28   32   
4    7   8   13   14   
4    7   8   14   28   
4    7   8   23   32   
4    7   8   28   32   
4    7   8   9   13   
4    7   8   9   23   
4    7   9   13   21   
4    7   9   21   23   
4    8   13   14   30   
4    8   23   24   32   
4    8   9   13   30   
4    8   9   20   24   
4    8   9   20   30   
4    8   9   23   24   
4    9   12   13   21   
4    9   12   13   27   
4    9   13   27   30   
4    9   19   20   27   
4    9   20   27   30   
4    9   10   12   21   
4    9   10   12   27   
4    9   10   19   27   
4    10   11   18   25   
4    10   11   25   26   
4    10   11   26   29   
4    10   12   21   29   
4    10   18   19   25   
