Server version 2018.02.28. K-point grid has 165 total points and 36 distinct points. Actual minimum periodic distance is 13.033610397737075 Angstroms. Grid includes gamma point. 
36
Fractional
0.00000000000000 0.00000000000000 0.00000000000000 1.0 ! 1
0.23636363636364 0.20000000000000 0.00000000000000 4.0 ! 2
0.47272727272727 0.40000000000000 0.00000000000000 4.0 ! 3
0.70909090909091 0.60000000000000 0.00000000000000 4.0 ! 4
0.94545454545455 0.80000000000000 0.00000000000000 4.0 ! 5
0.18181818181818 0.00000000000000 0.00000000000000 2.0 ! 6
0.41818181818182 0.20000000000000 0.00000000000000 4.0 ! 7
0.65454545454545 0.40000000000000 0.00000000000000 4.0 ! 8
0.12727272727273 0.80000000000000 0.00000000000000 4.0 ! 9
0.36363636363636 0.00000000000000 0.00000000000000 2.0 ! 10
0.60000000000000 0.20000000000000 0.00000000000000 2.0 ! 11
0.83636363636364 0.40000000000000 0.00000000000000 4.0 ! 12
0.30909090909091 0.80000000000000 0.00000000000000 4.0 ! 13
0.54545454545455 0.00000000000000 0.00000000000000 2.0 ! 14
0.01818181818182 0.40000000000000 0.00000000000000 4.0 ! 15
0.72727272727273 0.00000000000000 0.00000000000000 2.0 ! 16
0.20000000000000 0.40000000000000 0.00000000000000 2.0 ! 17
0.90909090909091 0.00000000000000 0.00000000000000 2.0 ! 18
0.39393939393939 0.00000000000000 0.33333333333333 4.0 ! 19
0.63030303030303 0.20000000000000 0.33333333333333 8.0 ! 20
0.86666666666667 0.40000000000000 0.33333333333333 4.0 ! 21
0.10303030303030 0.60000000000000 0.33333333333333 8.0 ! 22
0.33939393939394 0.80000000000000 0.33333333333333 8.0 ! 23
0.57575757575758 0.00000000000000 0.33333333333333 4.0 ! 24
0.81212121212121 0.20000000000000 0.33333333333333 8.0 ! 25
0.04848484848485 0.40000000000000 0.33333333333333 8.0 ! 26
0.17575757575758 0.20000000000000 0.33333333333333 8.0 ! 27
0.41212121212121 0.40000000000000 0.33333333333333 8.0 ! 28
0.88484848484849 0.80000000000000 0.33333333333333 8.0 ! 29
0.12121212121212 0.00000000000000 0.33333333333333 4.0 ! 30
0.59393939393939 0.40000000000000 0.33333333333333 8.0 ! 31
0.06666666666667 0.80000000000000 0.33333333333333 4.0 ! 32
0.30303030303030 0.00000000000000 0.33333333333333 4.0 ! 33
0.77575757575758 0.40000000000000 0.33333333333333 8.0 ! 34
0.48484848484849 0.00000000000000 0.33333333333333 4.0 ! 35
0.66666666666667 0.00000000000000 0.33333333333333 2.0 ! 36
Tetrahedra
135    0.00101010101010101
4    1   30   30   32   
8    1   5   18   30   
8    1   5   30   32   
4    1   5   5   32   
8    11   13   14   25   
4    11   14   14   36   
8    11   14   25   36   
4    11   21   25   25   
4    11   25   25   36   
8    12   13   20   34   
8    12   15   22   26   
8    12   20   26   34   
8    12   22   26   34   
8    13   14   24   25   
8    13   20   24   25   
8    13   20   25   34   
8    14   24   25   36   
8    15   22   26   31   
8    15   22   29   31   
8    16   19   23   35   
4    17   21   28   28   
4    17   28   28   32   
8    18   27   30   33   
4    19   19   23   23   
8    19   19   23   35   
8    19   23   23   29   
8    19   23   29   35   
8    19   29   33   35   
8    20   22   26   29   
8    20   22   26   34   
8    20   22   27   29   
8    20   22   27   34   
8    20   23   26   29   
8    20   23   29   35   
8    20   24   25   27   
8    20   24   27   33   
8    20   24   33   35   
8    20   25   27   34   
8    20   27   29   33   
8    20   29   33   35   
8    2   15   22   29   
8    2   18   27   33   
8    2   22   27   29   
8    2   27   29   33   
8    2   4   15   22   
8    2   4   22   27   
8    2   4   5   27   
8    2   5   18   27   
8    2   6   18   33   
8    2   6   29   33   
8    2   6   9   29   
8    2   9   15   29   
8    21   21   28   28   
4    21   25   25   32   
8    21   25   28   32   
8    21   25   28   34   
4    21   28   28   32   
8    21   28   28   34   
4    22   22   26   26   
8    22   22   26   34   
4    22   22   34   34   
8    22   26   26   31   
8    22   26   29   31   
8    22   27   28   34   
8    22   28   34   34   
8    23   23   29   31   
4    23   23   31   31   
8    23   26   29   31   
8    23   26   31   31   
8    24   25   27   30   
8    24   25   30   36   
8    24   27   30   33   
4    25   25   32   36   
8    25   27   28   32   
8    25   27   28   34   
8    25   27   30   32   
8    25   30   32   36   
4    26   26   31   31   
8    26   31   31   31   
4    28   28   34   34   
4    30   30   32   36   
8    3   12   15   26   
8    3   15   26   31   
8    3   23   26   31   
8    3   26   31   31   
8    3   3   15   31   
4    3   3   31   31   
8    3   7   12   26   
8    3   7   23   26   
8    3   7   9   23   
8    3   9   15   31   
8    3   9   23   31   
2    31   31   31   31   
8    4   12   15   22   
8    4   12   22   34   
8    4   22   27   28   
8    4   22   28   34   
8    4   5   17   28   
8    4   5   27   28   
8    4   8   12   34   
8    4   8   17   28   
8    4   8   28   34   
8    5   17   28   32   
8    5   18   27   30   
8    5   27   28   32   
8    5   27   30   32   
4    5   5   17   32   
8    6   19   29   33   
8    6   9   16   19   
8    6   9   19   29   
8    7   12   13   20   
8    7   12   20   26   
8    7   16   23   35   
8    7   20   23   26   
8    7   20   23   35   
8    7   9   16   23   
8    7   10   13   20   
8    7   10   16   35   
8    7   10   20   35   
8    8   11   13   25   
8    8   11   21   25   
8    8   12   13   34   
8    8   13   25   34   
8    8   17   21   28   
8    8   21   25   34   
8    8   21   28   34   
4    8   8   11   21   
4    8   8   17   21   
8    9   15   29   31   
8    9   16   19   23   
8    9   19   23   29   
8    9   23   29   31   
8    10   13   14   24   
8    10   13   20   24   
8    10   20   24   35   
