Server version 2018.02.28. K-point grid has 108 total points and 16 distinct points. Actual minimum periodic distance is 24.699910541335974 Angstroms. Grid includes gamma point. 
16
Fractional
0.00000000000000 0.00000000000000 0.00000000000000 1.0 ! 1
1.00000000000000 0.16666666666667 0.27777777777778 6.0 ! 2
1.00000000000000 0.33333333333333 0.55555555555556 6.0 ! 3
1.00000000000000 0.50000000000000 0.83333333333333 6.0 ! 4
1.00000000000000 0.66666666666667 0.11111111111111 6.0 ! 5
1.00000000000000 0.83333333333333 0.38888888888889 6.0 ! 6
1.00000000000000 0.00000000000000 0.66666666666667 2.0 ! 7
1.00000000000000 0.16666666666667 0.94444444444444 6.0 ! 8
1.00000000000000 0.33333333333333 0.22222222222222 6.0 ! 9
1.00000000000000 0.50000000000000 0.50000000000000 3.0 ! 10
0.16666666666667 0.16666666666667 0.50000000000000 12.0 ! 11
0.16666666666667 0.33333333333333 0.77777777777778 12.0 ! 12
0.16666666666667 0.50000000000000 0.05555555555556 12.0 ! 13
0.16666666666667 0.16666666666667 0.16666666666667 6.0 ! 14
0.16666666666667 0.33333333333333 0.44444444444445 12.0 ! 15
0.33333333333333 0.33333333333333 0.00000000000000 6.0 ! 16
Tetrahedra
56    0.0015432098765432098
12    1   2   7   8   
12    1   2   8   8   
6    11   11   12   12   
12    11   12   12   15   
12    11   12   13   15   
12    11   13   14   15   
12    12   12   15   16   
6    12   12   16   16   
12    12   13   13   16   
24    12   13   15   16   
12    12   15   15   16   
12    12   15   16   16   
12    13   13   14   15   
12    13   13   15   16   
6    13   13   16   16   
12    13   15   16   16   
12    2   3   6   11   
12    2   3   9   11   
12    2   6   6   11   
12    2   6   6   7   
12    2   6   7   8   
12    2   6   8   11   
12    2   8   11   14   
12    2   8   8   14   
12    2   8   9   14   
12    2   9   11   14   
12    3   11   11   12   
12    3   11   12   15   
12    3   4   5   12   
12    3   4   10   12   
12    3   5   11   12   
12    3   5   6   11   
12    3   6   11   11   
12    3   9   11   15   
12    3   9   10   15   
12    3   10   12   15   
12    4   12   13   13   
12    4   12   13   15   
6    4   4   13   13   
12    4   4   5   13   
12    4   5   12   13   
12    4   5   9   13   
12    4   9   13   15   
12    4   9   10   15   
12    4   10   12   15   
12    5   11   12   13   
12    5   11   13   14   
12    5   6   8   11   
12    5   8   11   14   
12    5   8   9   14   
12    5   9   13   14   
6    6   6   11   11   
6    6   6   7   7   
12    9   11   14   15   
12    9   13   14   15   
12    10   12   15   15   
