Server version 2018.02.28. K-point grid has 49 total points and 8 distinct points. Actual minimum periodic distance is 19.2110415321502 Angstroms. Grid includes gamma point. 
8
Fractional
0.00000000000000 0.00000000000000 0.00000000000000 1.0 ! 1
1.00000000000000 0.14285714285714 0.71428571428571 6.0 ! 2
1.00000000000000 0.28571428571429 0.42857142857143 6.0 ! 3
1.00000000000000 0.42857142857143 0.14285714285714 6.0 ! 4
0.14285714285714 0.14285714285714 0.14285714285714 6.0 ! 5
0.14285714285714 0.28571428571429 0.85714285714286 12.0 ! 6
0.14285714285714 0.42857142857143 0.57142857142857 6.0 ! 7
0.28571428571429 0.28571428571429 0.28571428571429 6.0 ! 8
Tetrahedra
52    0.003401360544217687
2    1   2   2   2   
2    1   2   2   3   
4    1   2   2   5   
4    1   2   3   5   
10    1   2   5   5   
2    1   3   5   5   
4    2   2   2   2   
6    2   2   2   3   
2    2   2   3   3   
4    2   2   3   5   
8    2   2   3   6   
4    2   3   3   6   
4    2   3   5   5   
12    2   3   5   6   
14    2   3   6   6   
2    2   4   5   5   
4    2   4   5   6   
2    2   4   6   6   
4    2   5   5   6   
4    2   5   6   6   
2    3   3   6   6   
6    3   4   5   5   
4    3   4   5   6   
4    3   4   5   7   
4    3   4   5   8   
2    3   4   6   6   
8    3   4   6   7   
8    3   4   7   7   
4    3   4   7   8   
4    3   5   6   7   
4    3   5   6   8   
16    3   6   6   7   
4    3   6   7   7   
4    3   6   7   8   
8    4   4   6   6   
8    4   4   6   8   
4    4   5   5   6   
4    4   5   6   6   
16    4   5   6   8   
4    4   5   7   8   
4    4   6   6   7   
4    4   6   6   8   
4    4   6   7   7   
16    4   6   7   8   
8    4   6   8   8   
4    5   6   7   8   
2    6   6   7   7   
8    6   6   7   8   
2    6   6   8   8   
4    6   7   7   8   
20    6   7   8   8   
2    7   7   8   8   
