 Generator version 2019.03.05. K-point grid has 72 total points and 23 distinct points. Actual minimum periodic distance is 23.287298984639673 Angstroms. Grid includes gamma point. 
23
Fractional
0.00000000000000 0.00000000000000 0.00000000000000 1.0 ! 1
0.16666666666667 0.79166666666667 0.83333333333333 4.0 ! 2
0.33333333333333 0.58333333333333 0.66666666666667 4.0 ! 3
0.50000000000000 0.37500000000000 0.50000000000000 4.0 ! 4
0.66666666666667 0.16666666666667 0.33333333333333 4.0 ! 5
0.83333333333333 0.95833333333333 0.16666666666667 4.0 ! 6
0.00000000000000 0.75000000000000 0.00000000000000 2.0 ! 7
0.16666666666667 0.54166666666667 0.83333333333333 4.0 ! 8
0.33333333333334 0.33333333333333 0.66666666666667 4.0 ! 9
0.66666666666667 0.91666666666667 0.33333333333333 4.0 ! 10
0.83333333333334 0.70833333333333 0.16666666666667 4.0 ! 11
0.00000000000000 0.50000000000000 0.00000000000000 1.0 ! 12
1.00000000000000 1.00000000000000 0.33333333333333 2.0 ! 13
0.33333333333333 0.58333333333333 0.00000000000000 4.0 ! 14
0.50000000000000 0.37500000000000 0.83333333333333 4.0 ! 15
0.83333333333333 0.95833333333333 0.50000000000000 4.0 ! 16
0.00000000000000 0.75000000000000 0.33333333333333 2.0 ! 17
0.33333333333334 0.33333333333333 0.00000000000000 2.0 ! 18
0.50000000000000 0.12500000000000 0.83333333333333 4.0 ! 19
0.83333333333334 0.70833333333333 0.50000000000000 4.0 ! 20
0.00000000000000 0.50000000000000 0.33333333333333 2.0 ! 21
0.00000000000000 0.25000000000000 0.33333333333333 2.0 ! 22
0.33333333333334 0.83333333333333 0.00000000000000 2.0 ! 23
Tetrahedra
110    0.0023148148148148147
4    1   2   6   13   
4    1   2   6   6   
4    1   2   6   7   
4    1   2   7   13   
4    1   6   13   17   
4    1   6   7   17   
4    11   17   20   21   
4    11   20   20   21   
2    13   13   16   16   
4    13   13   16   22   
4    13   16   17   22   
4    14   15   18   19   
8    14   15   19   19   
4    14   15   19   23   
4    15   15   18   19   
4    15   15   19   23   
4    16   17   20   22   
4    17   20   21   21   
4    17   20   21   22   
2    20   20   21   21   
4    2   13   16   16   
4    2   13   16   22   
4    2   3   5   14   
4    2   3   5   16   
4    2   3   8   14   
4    2   3   8   16   
4    2   5   14   23   
4    2   5   16   16   
4    2   5   6   16   
4    2   5   6   23   
4    2   6   11   14   
4    2   6   13   16   
4    2   6   14   23   
4    2   6   6   23   
4    2   6   7   11   
4    2   7   13   22   
4    2   7   8   11   
4    2   7   8   22   
4    2   8   11   14   
4    2   8   16   22   
4    3   14   15   18   
4    3   14   15   19   
4    3   4   15   19   
4    3   4   4   15   
4    3   4   4   10   
4    3   4   5   19   
4    3   4   5   5   
4    3   4   5   10   
4    3   4   9   15   
4    3   4   9   10   
4    3   5   14   19   
4    3   5   5   16   
4    3   5   10   16   
4    3   8   14   18   
4    3   8   16   20   
4    3   8   9   18   
4    3   8   9   20   
4    3   9   15   18   
4    3   9   10   20   
4    3   10   16   20   
4    4   4   5   19   
2    4   4   5   5   
4    4   4   9   19   
2    4   4   9   9   
4    4   4   10   15   
4    4   5   15   19   
4    4   5   10   15   
4    4   9   15   19   
4    4   9   9   10   
4    4   9   10   19   
4    4   10   15   19   
4    5   14   19   23   
4    5   15   19   23   
2    5   5   16   16   
4    5   6   10   16   
4    5   6   10   23   
4    5   10   15   23   
4    6   11   17   20   
4    6   13   16   17   
4    6   16   17   20   
4    6   7   11   17   
4    6   10   11   14   
4    6   10   11   20   
4    6   10   14   23   
4    6   10   16   20   
4    7   11   12   21   
4    7   11   17   21   
4    7   8   11   12   
4    7   8   12   22   
4    8   11   12   21   
4    8   11   14   18   
4    8   11   20   21   
4    8   12   21   22   
4    8   16   20   22   
4    8   20   21   22   
4    8   8   11   12   
4    8   8   11   18   
4    8   9   11   18   
4    8   9   11   20   
4    9   11   14   18   
4    9   11   20   20   
4    9   14   18   19   
4    9   15   18   19   
2    9   9   20   20   
4    9   9   10   20   
4    9   10   11   14   
4    9   10   11   20   
4    9   10   14   19   
4    10   14   15   19   
4    10   14   15   23   
