 Generator version 2019.03.05. K-point grid has 45 total points and 9 distinct points. Actual minimum periodic distance is 12.549900398011133 Angstroms. Grid includes gamma point. 
9
Fractional
0.00000000000000 0.00000000000000 0.00000000000000 1.0 ! 1
0.46666666666667 0.00000000000000 0.33333333333333 8.0 ! 2
0.93333333333333 0.00000000000000 0.66666666666667 8.0 ! 3
0.40000000000000 0.00000000000000 1.00000000000000 2.0 ! 4
0.33333333333333 0.00000000000000 0.66666666666667 4.0 ! 5
0.80000000000000 0.00000000000000 1.00000000000000 2.0 ! 6
0.93333333333333 0.33333333333333 0.33333333333333 8.0 ! 7
0.33333333333333 0.33333333333333 0.33333333333333 4.0 ! 8
0.80000000000000 0.33333333333333 0.66666666666667 8.0 ! 9
Tetrahedra
27    0.003703703703703704
8    1   3   3   6   
16    1   3   3   8   
16    2   2   3   9   
8    2   2   4   6   
8    2   2   4   7   
8    2   2   6   9   
8    2   2   7   9   
8    2   2   9   9   
16    2   3   5   7   
16    2   3   6   9   
16    2   3   7   9   
16    2   4   5   7   
16    2   7   9   9   
8    3   3   5   8   
8    3   3   6   9   
8    3   3   8   9   
16    3   5   7   8   
16    3   7   8   9   
4    4   4   5   5   
8    4   5   5   7   
4    5   5   7   7   
8    5   7   7   8   
8    7   7   8   8   
8    7   7   8   9   
4    7   7   9   9   
8    7   9   9   9   
2    9   9   9   9   
